! -----------------------------------------------------------------------------
! CLAIM LABEL: OFFICE_SCREENING_SEED_UNCALIBRATED
! SCOPE: two monitored office floors, 4,650 m2 total.
! THIS IS A RUNNABLE SCREENING SEED, NOT AN AS-BUILT OR CALIBRATED MODEL.
! No result from this file authorizes a Guideline-14, DSM, savings, or tariff claim.
!
! PUBLISHED RTU RATING (evidence, not direct coil input): 9.438949 m3/s (20,000 cfm) supply, 2.3597373 m3/s (5,000 cfm) minimum OA, 105505.59 W (30 ton), 20 hp supply motor, 7.5 hp return motor.
! SIMULATION PROXY: TwoSpeedDX coil flow 6.3712906 m3/s (13500 cfm) at 142432.54 W; this stays near the supported 400 cfm/ton coil domain. Fan pressures/efficiencies are bounded proxies; published motor hp is not silently converted to coincident shaft power.
! OUTPUT PROFILE: lean.
! SIMULATION CALENDAR YEAR: 2020; explicit so leap-day weather is retained.
! METER SCOPE: facility total is prohibited as a calibration target; use the partial meter-bound proxy only after resolving elevator and ASHP/WSHP dispositions; electric terminal reheat is separately reported and excluded.
!
! UNMATCHED / UNRESOLVED TOPOLOGY:
! - The rectangular 93 m by 25 m footprint, orientation, zoning, windows, and constructions are screening assumptions.
! - Each RTU service group is represented by six aggregate occupied zones, not the documented 57-zone/50-UFT map.
! - Segmented supply plenums approximate UFAD delivery; stratification, diffuser induction, leakage, and raised-floor details are not resolved.
! - PackagedVAV TwoSpeedDX is air-cooled; the documented water-cooled DX condenser loop and shared HPC cooling towers are not represented.
! - Electric terminal reheat is an all-electric load proxy, not the documented hydronic UFT and heat-pump plant.
! - The four template air loops use identical schedules and curves but do not reproduce the documented common fan-speed controller.
! - The published 20,000 cfm fan rating exceeds the packaged-DX airflow domain at 30 tons; the proxy uses 12,000 cfm coil airflow and retains 20,000 cfm as immutable evidence.
! - The weekday schedule and all internal-load, envelope, glazing, infiltration, thermostat, COP, and fan-pressure values require data binding.
! - No NERSC floor, mechanical floor, shared heat rejection, tariff, actual-year weather, or historical control-regime transition is modeled.
! -----------------------------------------------------------------------------

Version,
  26.1;

Building,
  OFFICE_SCREENING_SEED_UNCALIBRATED,
  0,
  City,
  0.04,
  0.4,
  FullExterior,
  100,
  6;

Timestep,
  4;

ShadowCalculation,
  PolygonClipping,
  Periodic,
  20,
  15000,
  SutherlandHodgman,
  512,
  SimpleSkyDiffuseModeling;

SimulationControl,
  Yes,
  Yes,
  No,
  No,
  Yes,
  No,
  1;

RunPeriod,
  SCREENING_YEAR,
  1,
  1,
  2020,
  12,
  31,
  2020,
  ,
  Yes,
  Yes,
  No,
  Yes,
  Yes,
  No,
  Hour24;

GlobalGeometryRules,
  UpperLeftCorner,
  Counterclockwise,
  World,
  Relative,
  Relative;

Sizing:Parameters,
  1,
  1;

SizingPeriod:DesignDay,
  SAN_FRANCISCO_SCREENING_HEATING_99_6,
  1,
  21,
  WinterDesignDay,
  3.8,
  0,
  DefaultMultipliers,
  ,
  Wetbulb,
  3.8,
  ,
  ,
  ,
  ,
  101301,
  2.2,
  150,
  No,
  No,
  No,
  ASHRAEClearSky,
  ,
  ,
  ,
  ,
  0;

SizingPeriod:DesignDay,
  SAN_FRANCISCO_SCREENING_COOLING_1,
  7,
  21,
  SummerDesignDay,
  27.2,
  8.1,
  DefaultMultipliers,
  ,
  Wetbulb,
  18.3,
  ,
  ,
  ,
  ,
  101301,
  4.4,
  290,
  No,
  No,
  No,
  ASHRAEClearSky,
  ,
  ,
  ,
  ,
  1;

ScheduleTypeLimits,
  FRACTION,
  0,
  1,
  Continuous;

ScheduleTypeLimits,
  TEMPERATURE,
  -60,
  200,
  Continuous,
  Temperature;

ScheduleTypeLimits,
  ANY_NUMBER;

Schedule:Constant,
  SCREENING_ACTIVITY,
  ANY_NUMBER,
  120;

Schedule:Constant,
  SCREENING_ALWAYS_ON,
  FRACTION,
  1;

Schedule:Compact,
  SCREENING_PEOPLE_FRACTION,
  FRACTION,
  Through: 3/17,
  For: SummerDesignDay WinterDesignDay,
  Until: 24:00,
  0.05,
  For: Weekdays,
  Until: 08:00,
  0.05,
  Until: 18:00,
  1,
  Until: 23:00,
  0.25,
  Until: 24:00,
  0.05,
  For: Weekends Holidays,
  Until: 24:00,
  0.05,
  For: AllOtherDays,
  Until: 24:00,
  0.05,
  Through: 12/31,
  For: SummerDesignDay WinterDesignDay,
  Until: 24:00,
  0.05,
  For: Weekdays,
  Until: 08:00,
  0.0125,
  Until: 18:00,
  0.25,
  Until: 23:00,
  0.0625,
  Until: 24:00,
  0.0125,
  For: Weekends Holidays,
  Until: 24:00,
  0.0125,
  For: AllOtherDays,
  Until: 24:00,
  0.0125;

Schedule:Compact,
  SCREENING_LIGHTS_FRACTION,
  FRACTION,
  Through: 3/17,
  For: SummerDesignDay WinterDesignDay,
  Until: 24:00,
  0.05,
  For: Weekdays,
  Until: 08:00,
  0.05,
  Until: 18:00,
  1,
  Until: 23:00,
  0.25,
  Until: 24:00,
  0.05,
  For: Weekends Holidays,
  Until: 24:00,
  0.05,
  For: AllOtherDays,
  Until: 24:00,
  0.05,
  Through: 12/31,
  For: SummerDesignDay WinterDesignDay,
  Until: 24:00,
  0.05,
  For: Weekdays,
  Until: 08:00,
  0.013696289,
  Until: 18:00,
  0.27392578,
  Until: 23:00,
  0.068481445,
  Until: 24:00,
  0.013696289,
  For: Weekends Holidays,
  Until: 24:00,
  0.013696289,
  For: AllOtherDays,
  Until: 24:00,
  0.013696289;

Schedule:Compact,
  SCREENING_MEL_FRACTION,
  FRACTION,
  Through: 3/17,
  For: SummerDesignDay WinterDesignDay,
  Until: 24:00,
  0.05,
  For: Weekdays,
  Until: 08:00,
  0.05,
  Until: 18:00,
  1,
  Until: 23:00,
  0.25,
  Until: 24:00,
  0.05,
  For: Weekends Holidays,
  Until: 24:00,
  0.05,
  For: AllOtherDays,
  Until: 24:00,
  0.05,
  Through: 12/31,
  For: SummerDesignDay WinterDesignDay,
  Until: 24:00,
  0.05,
  For: Weekdays,
  Until: 08:00,
  0.012187983,
  Until: 18:00,
  0.24375966,
  Until: 23:00,
  0.060939916,
  Until: 24:00,
  0.012187983,
  For: Weekends Holidays,
  Until: 24:00,
  0.012187983,
  For: AllOtherDays,
  Until: 24:00,
  0.012187983;

Schedule:Constant,
  SCREENING_HVAC_AVAILABILITY,
  FRACTION,
  1;

Schedule:Compact,
  SCREENING_HEATING_SETPOINT,
  TEMPERATURE,
  Through: 12/31,
  For: WinterDesignDay SummerDesignDay,
  Until: 24:00,
  21.8,
  For: Weekdays,
  Until: 04:30,
  15.6,
  Until: 23:00,
  21.8,
  Until: 24:00,
  15.6,
  For: AllOtherDays,
  Until: 24:00,
  15.6;

Schedule:Compact,
  SCREENING_COOLING_SETPOINT,
  TEMPERATURE,
  Through: 12/31,
  For: WinterDesignDay SummerDesignDay,
  Until: 24:00,
  23.2,
  For: Weekdays,
  Until: 04:30,
  29.4,
  Until: 23:00,
  23.2,
  Until: 24:00,
  29.4,
  For: AllOtherDays,
  Until: 24:00,
  29.4;

Material:NoMass,
  SCREENING_WALL_R,
  MediumSmooth,
  2.5,
  0.9,
  0.6,
  0.6;

Material:NoMass,
  SCREENING_ROOF_R,
  MediumRough,
  5.3,
  0.9,
  0.6,
  0.6;

Material,
  SCREENING_CONCRETE,
  MediumRough,
  0.15,
  1.4,
  2200,
  900,
  0.9,
  0.65,
  0.65;

Material,
  SCREENING_GYPSUM,
  Smooth,
  0.025,
  0.16,
  800,
  1090,
  0.9,
  0.5,
  0.5;

WindowMaterial:SimpleGlazingSystem,
  SCREENING_SIMPLE_GLAZING,
  2,
  0.35,
  0.6;

Construction,
  SCREENING_EXTERIOR_WALL,
  SCREENING_WALL_R;

Construction,
  SCREENING_ROOF,
  SCREENING_ROOF_R;

Construction,
  SCREENING_FLOOR,
  SCREENING_CONCRETE;

Construction,
  SCREENING_INTERIOR,
  SCREENING_GYPSUM;

Construction,
  SCREENING_WINDOW,
  SCREENING_SIMPLE_GLAZING;

Zone,
  F3_RTU1_SOUTH_PERIMETER_UFAD_PLENUM,
  0,
  0,
  0,
  0,
  1,
  1,
  0.6,
  autocalculate,
  autocalculate,
  ,
  ,
  No;

Zone,
  F3_RTU1_SOUTH_PERIMETER,
  0,
  0,
  0,
  0,
  1,
  1,
  3.4,
  autocalculate,
  autocalculate,
  ,
  ,
  Yes;

Zone,
  F3_RTU1_CORE_UFAD_PLENUM,
  0,
  0,
  0,
  0,
  1,
  1,
  0.6,
  autocalculate,
  autocalculate,
  ,
  ,
  No;

Zone,
  F3_RTU1_CORE,
  0,
  0,
  0,
  0,
  1,
  1,
  3.4,
  autocalculate,
  autocalculate,
  ,
  ,
  Yes;

Zone,
  F3_RTU1_NORTH_PERIMETER_UFAD_PLENUM,
  0,
  0,
  0,
  0,
  1,
  1,
  0.6,
  autocalculate,
  autocalculate,
  ,
  ,
  No;

Zone,
  F3_RTU1_NORTH_PERIMETER,
  0,
  0,
  0,
  0,
  1,
  1,
  3.4,
  autocalculate,
  autocalculate,
  ,
  ,
  Yes;

Zone,
  F3_RTU2_SOUTH_PERIMETER_UFAD_PLENUM,
  0,
  0,
  0,
  0,
  1,
  1,
  0.6,
  autocalculate,
  autocalculate,
  ,
  ,
  No;

Zone,
  F3_RTU2_SOUTH_PERIMETER,
  0,
  0,
  0,
  0,
  1,
  1,
  3.4,
  autocalculate,
  autocalculate,
  ,
  ,
  Yes;

Zone,
  F3_RTU2_CORE_UFAD_PLENUM,
  0,
  0,
  0,
  0,
  1,
  1,
  0.6,
  autocalculate,
  autocalculate,
  ,
  ,
  No;

Zone,
  F3_RTU2_CORE,
  0,
  0,
  0,
  0,
  1,
  1,
  3.4,
  autocalculate,
  autocalculate,
  ,
  ,
  Yes;

Zone,
  F3_RTU2_NORTH_PERIMETER_UFAD_PLENUM,
  0,
  0,
  0,
  0,
  1,
  1,
  0.6,
  autocalculate,
  autocalculate,
  ,
  ,
  No;

Zone,
  F3_RTU2_NORTH_PERIMETER,
  0,
  0,
  0,
  0,
  1,
  1,
  3.4,
  autocalculate,
  autocalculate,
  ,
  ,
  Yes;

Zone,
  F3_RTU3_SOUTH_PERIMETER_UFAD_PLENUM,
  0,
  0,
  0,
  0,
  1,
  1,
  0.6,
  autocalculate,
  autocalculate,
  ,
  ,
  No;

Zone,
  F3_RTU3_SOUTH_PERIMETER,
  0,
  0,
  0,
  0,
  1,
  1,
  3.4,
  autocalculate,
  autocalculate,
  ,
  ,
  Yes;

Zone,
  F3_RTU3_CORE_UFAD_PLENUM,
  0,
  0,
  0,
  0,
  1,
  1,
  0.6,
  autocalculate,
  autocalculate,
  ,
  ,
  No;

Zone,
  F3_RTU3_CORE,
  0,
  0,
  0,
  0,
  1,
  1,
  3.4,
  autocalculate,
  autocalculate,
  ,
  ,
  Yes;

Zone,
  F3_RTU3_NORTH_PERIMETER_UFAD_PLENUM,
  0,
  0,
  0,
  0,
  1,
  1,
  0.6,
  autocalculate,
  autocalculate,
  ,
  ,
  No;

Zone,
  F3_RTU3_NORTH_PERIMETER,
  0,
  0,
  0,
  0,
  1,
  1,
  3.4,
  autocalculate,
  autocalculate,
  ,
  ,
  Yes;

Zone,
  F3_RTU4_SOUTH_PERIMETER_UFAD_PLENUM,
  0,
  0,
  0,
  0,
  1,
  1,
  0.6,
  autocalculate,
  autocalculate,
  ,
  ,
  No;

Zone,
  F3_RTU4_SOUTH_PERIMETER,
  0,
  0,
  0,
  0,
  1,
  1,
  3.4,
  autocalculate,
  autocalculate,
  ,
  ,
  Yes;

Zone,
  F3_RTU4_CORE_UFAD_PLENUM,
  0,
  0,
  0,
  0,
  1,
  1,
  0.6,
  autocalculate,
  autocalculate,
  ,
  ,
  No;

Zone,
  F3_RTU4_CORE,
  0,
  0,
  0,
  0,
  1,
  1,
  3.4,
  autocalculate,
  autocalculate,
  ,
  ,
  Yes;

Zone,
  F3_RTU4_NORTH_PERIMETER_UFAD_PLENUM,
  0,
  0,
  0,
  0,
  1,
  1,
  0.6,
  autocalculate,
  autocalculate,
  ,
  ,
  No;

Zone,
  F3_RTU4_NORTH_PERIMETER,
  0,
  0,
  0,
  0,
  1,
  1,
  3.4,
  autocalculate,
  autocalculate,
  ,
  ,
  Yes;

Zone,
  F4_RTU1_SOUTH_PERIMETER_UFAD_PLENUM,
  0,
  0,
  0,
  0,
  1,
  1,
  0.6,
  autocalculate,
  autocalculate,
  ,
  ,
  No;

Zone,
  F4_RTU1_SOUTH_PERIMETER,
  0,
  0,
  0,
  0,
  1,
  1,
  3.4,
  autocalculate,
  autocalculate,
  ,
  ,
  Yes;

Zone,
  F4_RTU1_CORE_UFAD_PLENUM,
  0,
  0,
  0,
  0,
  1,
  1,
  0.6,
  autocalculate,
  autocalculate,
  ,
  ,
  No;

Zone,
  F4_RTU1_CORE,
  0,
  0,
  0,
  0,
  1,
  1,
  3.4,
  autocalculate,
  autocalculate,
  ,
  ,
  Yes;

Zone,
  F4_RTU1_NORTH_PERIMETER_UFAD_PLENUM,
  0,
  0,
  0,
  0,
  1,
  1,
  0.6,
  autocalculate,
  autocalculate,
  ,
  ,
  No;

Zone,
  F4_RTU1_NORTH_PERIMETER,
  0,
  0,
  0,
  0,
  1,
  1,
  3.4,
  autocalculate,
  autocalculate,
  ,
  ,
  Yes;

Zone,
  F4_RTU2_SOUTH_PERIMETER_UFAD_PLENUM,
  0,
  0,
  0,
  0,
  1,
  1,
  0.6,
  autocalculate,
  autocalculate,
  ,
  ,
  No;

Zone,
  F4_RTU2_SOUTH_PERIMETER,
  0,
  0,
  0,
  0,
  1,
  1,
  3.4,
  autocalculate,
  autocalculate,
  ,
  ,
  Yes;

Zone,
  F4_RTU2_CORE_UFAD_PLENUM,
  0,
  0,
  0,
  0,
  1,
  1,
  0.6,
  autocalculate,
  autocalculate,
  ,
  ,
  No;

Zone,
  F4_RTU2_CORE,
  0,
  0,
  0,
  0,
  1,
  1,
  3.4,
  autocalculate,
  autocalculate,
  ,
  ,
  Yes;

Zone,
  F4_RTU2_NORTH_PERIMETER_UFAD_PLENUM,
  0,
  0,
  0,
  0,
  1,
  1,
  0.6,
  autocalculate,
  autocalculate,
  ,
  ,
  No;

Zone,
  F4_RTU2_NORTH_PERIMETER,
  0,
  0,
  0,
  0,
  1,
  1,
  3.4,
  autocalculate,
  autocalculate,
  ,
  ,
  Yes;

Zone,
  F4_RTU3_SOUTH_PERIMETER_UFAD_PLENUM,
  0,
  0,
  0,
  0,
  1,
  1,
  0.6,
  autocalculate,
  autocalculate,
  ,
  ,
  No;

Zone,
  F4_RTU3_SOUTH_PERIMETER,
  0,
  0,
  0,
  0,
  1,
  1,
  3.4,
  autocalculate,
  autocalculate,
  ,
  ,
  Yes;

Zone,
  F4_RTU3_CORE_UFAD_PLENUM,
  0,
  0,
  0,
  0,
  1,
  1,
  0.6,
  autocalculate,
  autocalculate,
  ,
  ,
  No;

Zone,
  F4_RTU3_CORE,
  0,
  0,
  0,
  0,
  1,
  1,
  3.4,
  autocalculate,
  autocalculate,
  ,
  ,
  Yes;

Zone,
  F4_RTU3_NORTH_PERIMETER_UFAD_PLENUM,
  0,
  0,
  0,
  0,
  1,
  1,
  0.6,
  autocalculate,
  autocalculate,
  ,
  ,
  No;

Zone,
  F4_RTU3_NORTH_PERIMETER,
  0,
  0,
  0,
  0,
  1,
  1,
  3.4,
  autocalculate,
  autocalculate,
  ,
  ,
  Yes;

Zone,
  F4_RTU4_SOUTH_PERIMETER_UFAD_PLENUM,
  0,
  0,
  0,
  0,
  1,
  1,
  0.6,
  autocalculate,
  autocalculate,
  ,
  ,
  No;

Zone,
  F4_RTU4_SOUTH_PERIMETER,
  0,
  0,
  0,
  0,
  1,
  1,
  3.4,
  autocalculate,
  autocalculate,
  ,
  ,
  Yes;

Zone,
  F4_RTU4_CORE_UFAD_PLENUM,
  0,
  0,
  0,
  0,
  1,
  1,
  0.6,
  autocalculate,
  autocalculate,
  ,
  ,
  No;

Zone,
  F4_RTU4_CORE,
  0,
  0,
  0,
  0,
  1,
  1,
  3.4,
  autocalculate,
  autocalculate,
  ,
  ,
  Yes;

Zone,
  F4_RTU4_NORTH_PERIMETER_UFAD_PLENUM,
  0,
  0,
  0,
  0,
  1,
  1,
  0.6,
  autocalculate,
  autocalculate,
  ,
  ,
  No;

Zone,
  F4_RTU4_NORTH_PERIMETER,
  0,
  0,
  0,
  0,
  1,
  1,
  3.4,
  autocalculate,
  autocalculate,
  ,
  ,
  Yes;

ZoneList,
  B59_SCREENING_OCCUPIED_ZONES,
  F3_RTU1_SOUTH_PERIMETER,
  F3_RTU1_CORE,
  F3_RTU1_NORTH_PERIMETER,
  F3_RTU2_SOUTH_PERIMETER,
  F3_RTU2_CORE,
  F3_RTU2_NORTH_PERIMETER,
  F3_RTU3_SOUTH_PERIMETER,
  F3_RTU3_CORE,
  F3_RTU3_NORTH_PERIMETER,
  F3_RTU4_SOUTH_PERIMETER,
  F3_RTU4_CORE,
  F3_RTU4_NORTH_PERIMETER,
  F4_RTU1_SOUTH_PERIMETER,
  F4_RTU1_CORE,
  F4_RTU1_NORTH_PERIMETER,
  F4_RTU2_SOUTH_PERIMETER,
  F4_RTU2_CORE,
  F4_RTU2_NORTH_PERIMETER,
  F4_RTU3_SOUTH_PERIMETER,
  F4_RTU3_CORE,
  F4_RTU3_NORTH_PERIMETER,
  F4_RTU4_SOUTH_PERIMETER,
  F4_RTU4_CORE,
  F4_RTU4_NORTH_PERIMETER;

BuildingSurface:Detailed,
  F3_RTU1_SOUTH_PERIMETER_UFAD_PLENUM_SOUTH_WALL,
  Wall,
  SCREENING_EXTERIOR_WALL,
  F3_RTU1_SOUTH_PERIMETER_UFAD_PLENUM,
  ,
  Outdoors,
  ,
  SunExposed,
  WindExposed,
  autocalculate,
  4,
  0,
  0,
  0.6,
  0,
  0,
  0,
  23.25,
  0,
  0,
  23.25,
  0,
  0.6;

BuildingSurface:Detailed,
  F3_RTU1_SOUTH_PERIMETER_UFAD_PLENUM_EAST_WALL,
  Wall,
  SCREENING_INTERIOR,
  F3_RTU1_SOUTH_PERIMETER_UFAD_PLENUM,
  ,
  Adiabatic,
  ,
  NoSun,
  NoWind,
  autocalculate,
  4,
  23.25,
  0,
  0.6,
  23.25,
  0,
  0,
  23.25,
  5,
  0,
  23.25,
  5,
  0.6;

BuildingSurface:Detailed,
  F3_RTU1_SOUTH_PERIMETER_UFAD_PLENUM_NORTH_WALL,
  Wall,
  SCREENING_INTERIOR,
  F3_RTU1_SOUTH_PERIMETER_UFAD_PLENUM,
  ,
  Adiabatic,
  ,
  NoSun,
  NoWind,
  autocalculate,
  4,
  23.25,
  5,
  0.6,
  23.25,
  5,
  0,
  0,
  5,
  0,
  0,
  5,
  0.6;

BuildingSurface:Detailed,
  F3_RTU1_SOUTH_PERIMETER_UFAD_PLENUM_WEST_WALL,
  Wall,
  SCREENING_EXTERIOR_WALL,
  F3_RTU1_SOUTH_PERIMETER_UFAD_PLENUM,
  ,
  Outdoors,
  ,
  SunExposed,
  WindExposed,
  autocalculate,
  4,
  0,
  5,
  0.6,
  0,
  5,
  0,
  0,
  0,
  0,
  0,
  0,
  0.6;

BuildingSurface:Detailed,
  F3_RTU1_SOUTH_PERIMETER_UFAD_PLENUM_FLOOR,
  Floor,
  SCREENING_FLOOR,
  F3_RTU1_SOUTH_PERIMETER_UFAD_PLENUM,
  ,
  Adiabatic,
  ,
  NoSun,
  NoWind,
  autocalculate,
  4,
  0,
  0,
  0,
  0,
  5,
  0,
  23.25,
  5,
  0,
  23.25,
  0,
  0;

BuildingSurface:Detailed,
  F3_RTU1_SOUTH_PERIMETER_UFAD_PLENUM_CEILING,
  Ceiling,
  SCREENING_INTERIOR,
  F3_RTU1_SOUTH_PERIMETER_UFAD_PLENUM,
  ,
  Adiabatic,
  ,
  NoSun,
  NoWind,
  autocalculate,
  4,
  0,
  5,
  0.6,
  0,
  0,
  0.6,
  23.25,
  0,
  0.6,
  23.25,
  5,
  0.6;

BuildingSurface:Detailed,
  F3_RTU1_SOUTH_PERIMETER_SOUTH_WALL,
  Wall,
  SCREENING_EXTERIOR_WALL,
  F3_RTU1_SOUTH_PERIMETER,
  ,
  Outdoors,
  ,
  SunExposed,
  WindExposed,
  autocalculate,
  4,
  0,
  0,
  4,
  0,
  0,
  0.6,
  23.25,
  0,
  0.6,
  23.25,
  0,
  4;

BuildingSurface:Detailed,
  F3_RTU1_SOUTH_PERIMETER_EAST_WALL,
  Wall,
  SCREENING_INTERIOR,
  F3_RTU1_SOUTH_PERIMETER,
  ,
  Adiabatic,
  ,
  NoSun,
  NoWind,
  autocalculate,
  4,
  23.25,
  0,
  4,
  23.25,
  0,
  0.6,
  23.25,
  5,
  0.6,
  23.25,
  5,
  4;

BuildingSurface:Detailed,
  F3_RTU1_SOUTH_PERIMETER_NORTH_WALL,
  Wall,
  SCREENING_INTERIOR,
  F3_RTU1_SOUTH_PERIMETER,
  ,
  Adiabatic,
  ,
  NoSun,
  NoWind,
  autocalculate,
  4,
  23.25,
  5,
  4,
  23.25,
  5,
  0.6,
  0,
  5,
  0.6,
  0,
  5,
  4;

BuildingSurface:Detailed,
  F3_RTU1_SOUTH_PERIMETER_WEST_WALL,
  Wall,
  SCREENING_EXTERIOR_WALL,
  F3_RTU1_SOUTH_PERIMETER,
  ,
  Outdoors,
  ,
  SunExposed,
  WindExposed,
  autocalculate,
  4,
  0,
  5,
  4,
  0,
  5,
  0.6,
  0,
  0,
  0.6,
  0,
  0,
  4;

BuildingSurface:Detailed,
  F3_RTU1_SOUTH_PERIMETER_FLOOR,
  Floor,
  SCREENING_FLOOR,
  F3_RTU1_SOUTH_PERIMETER,
  ,
  Adiabatic,
  ,
  NoSun,
  NoWind,
  autocalculate,
  4,
  0,
  0,
  0.6,
  0,
  5,
  0.6,
  23.25,
  5,
  0.6,
  23.25,
  0,
  0.6;

BuildingSurface:Detailed,
  F3_RTU1_SOUTH_PERIMETER_CEILING,
  Ceiling,
  SCREENING_INTERIOR,
  F3_RTU1_SOUTH_PERIMETER,
  ,
  Adiabatic,
  ,
  NoSun,
  NoWind,
  autocalculate,
  4,
  0,
  5,
  4,
  0,
  0,
  4,
  23.25,
  0,
  4,
  23.25,
  5,
  4;

FenestrationSurface:Detailed,
  F3_RTU1_SOUTH_PERIMETER_SOUTH_WINDOW,
  Window,
  SCREENING_WINDOW,
  F3_RTU1_SOUTH_PERIMETER_SOUTH_WALL,
  ,
  autocalculate,
  ,
  1,
  4,
  2.325,
  0,
  3.15,
  2.325,
  0,
  1.45,
  20.925,
  0,
  1.45,
  20.925,
  0,
  3.15;

FenestrationSurface:Detailed,
  F3_RTU1_SOUTH_PERIMETER_WEST_WINDOW,
  Window,
  SCREENING_WINDOW,
  F3_RTU1_SOUTH_PERIMETER_WEST_WALL,
  ,
  autocalculate,
  ,
  1,
  4,
  0,
  4.5,
  3.15,
  0,
  4.5,
  1.45,
  0,
  0.5,
  1.45,
  0,
  0.5,
  3.15;

BuildingSurface:Detailed,
  F3_RTU1_CORE_UFAD_PLENUM_SOUTH_WALL,
  Wall,
  SCREENING_INTERIOR,
  F3_RTU1_CORE_UFAD_PLENUM,
  ,
  Adiabatic,
  ,
  NoSun,
  NoWind,
  autocalculate,
  4,
  0,
  5,
  0.6,
  0,
  5,
  0,
  23.25,
  5,
  0,
  23.25,
  5,
  0.6;

BuildingSurface:Detailed,
  F3_RTU1_CORE_UFAD_PLENUM_EAST_WALL,
  Wall,
  SCREENING_INTERIOR,
  F3_RTU1_CORE_UFAD_PLENUM,
  ,
  Adiabatic,
  ,
  NoSun,
  NoWind,
  autocalculate,
  4,
  23.25,
  5,
  0.6,
  23.25,
  5,
  0,
  23.25,
  20,
  0,
  23.25,
  20,
  0.6;

BuildingSurface:Detailed,
  F3_RTU1_CORE_UFAD_PLENUM_NORTH_WALL,
  Wall,
  SCREENING_INTERIOR,
  F3_RTU1_CORE_UFAD_PLENUM,
  ,
  Adiabatic,
  ,
  NoSun,
  NoWind,
  autocalculate,
  4,
  23.25,
  20,
  0.6,
  23.25,
  20,
  0,
  0,
  20,
  0,
  0,
  20,
  0.6;

BuildingSurface:Detailed,
  F3_RTU1_CORE_UFAD_PLENUM_WEST_WALL,
  Wall,
  SCREENING_EXTERIOR_WALL,
  F3_RTU1_CORE_UFAD_PLENUM,
  ,
  Outdoors,
  ,
  SunExposed,
  WindExposed,
  autocalculate,
  4,
  0,
  20,
  0.6,
  0,
  20,
  0,
  0,
  5,
  0,
  0,
  5,
  0.6;

BuildingSurface:Detailed,
  F3_RTU1_CORE_UFAD_PLENUM_FLOOR,
  Floor,
  SCREENING_FLOOR,
  F3_RTU1_CORE_UFAD_PLENUM,
  ,
  Adiabatic,
  ,
  NoSun,
  NoWind,
  autocalculate,
  4,
  0,
  5,
  0,
  0,
  20,
  0,
  23.25,
  20,
  0,
  23.25,
  5,
  0;

BuildingSurface:Detailed,
  F3_RTU1_CORE_UFAD_PLENUM_CEILING,
  Ceiling,
  SCREENING_INTERIOR,
  F3_RTU1_CORE_UFAD_PLENUM,
  ,
  Adiabatic,
  ,
  NoSun,
  NoWind,
  autocalculate,
  4,
  0,
  20,
  0.6,
  0,
  5,
  0.6,
  23.25,
  5,
  0.6,
  23.25,
  20,
  0.6;

BuildingSurface:Detailed,
  F3_RTU1_CORE_SOUTH_WALL,
  Wall,
  SCREENING_INTERIOR,
  F3_RTU1_CORE,
  ,
  Adiabatic,
  ,
  NoSun,
  NoWind,
  autocalculate,
  4,
  0,
  5,
  4,
  0,
  5,
  0.6,
  23.25,
  5,
  0.6,
  23.25,
  5,
  4;

BuildingSurface:Detailed,
  F3_RTU1_CORE_EAST_WALL,
  Wall,
  SCREENING_INTERIOR,
  F3_RTU1_CORE,
  ,
  Adiabatic,
  ,
  NoSun,
  NoWind,
  autocalculate,
  4,
  23.25,
  5,
  4,
  23.25,
  5,
  0.6,
  23.25,
  20,
  0.6,
  23.25,
  20,
  4;

BuildingSurface:Detailed,
  F3_RTU1_CORE_NORTH_WALL,
  Wall,
  SCREENING_INTERIOR,
  F3_RTU1_CORE,
  ,
  Adiabatic,
  ,
  NoSun,
  NoWind,
  autocalculate,
  4,
  23.25,
  20,
  4,
  23.25,
  20,
  0.6,
  0,
  20,
  0.6,
  0,
  20,
  4;

BuildingSurface:Detailed,
  F3_RTU1_CORE_WEST_WALL,
  Wall,
  SCREENING_EXTERIOR_WALL,
  F3_RTU1_CORE,
  ,
  Outdoors,
  ,
  SunExposed,
  WindExposed,
  autocalculate,
  4,
  0,
  20,
  4,
  0,
  20,
  0.6,
  0,
  5,
  0.6,
  0,
  5,
  4;

BuildingSurface:Detailed,
  F3_RTU1_CORE_FLOOR,
  Floor,
  SCREENING_FLOOR,
  F3_RTU1_CORE,
  ,
  Adiabatic,
  ,
  NoSun,
  NoWind,
  autocalculate,
  4,
  0,
  5,
  0.6,
  0,
  20,
  0.6,
  23.25,
  20,
  0.6,
  23.25,
  5,
  0.6;

BuildingSurface:Detailed,
  F3_RTU1_CORE_CEILING,
  Ceiling,
  SCREENING_INTERIOR,
  F3_RTU1_CORE,
  ,
  Adiabatic,
  ,
  NoSun,
  NoWind,
  autocalculate,
  4,
  0,
  20,
  4,
  0,
  5,
  4,
  23.25,
  5,
  4,
  23.25,
  20,
  4;

FenestrationSurface:Detailed,
  F3_RTU1_CORE_WEST_WINDOW,
  Window,
  SCREENING_WINDOW,
  F3_RTU1_CORE_WEST_WALL,
  ,
  autocalculate,
  ,
  1,
  4,
  0,
  18.5,
  3.15,
  0,
  18.5,
  1.45,
  0,
  6.5,
  1.45,
  0,
  6.5,
  3.15;

BuildingSurface:Detailed,
  F3_RTU1_NORTH_PERIMETER_UFAD_PLENUM_SOUTH_WALL,
  Wall,
  SCREENING_INTERIOR,
  F3_RTU1_NORTH_PERIMETER_UFAD_PLENUM,
  ,
  Adiabatic,
  ,
  NoSun,
  NoWind,
  autocalculate,
  4,
  0,
  20,
  0.6,
  0,
  20,
  0,
  23.25,
  20,
  0,
  23.25,
  20,
  0.6;

BuildingSurface:Detailed,
  F3_RTU1_NORTH_PERIMETER_UFAD_PLENUM_EAST_WALL,
  Wall,
  SCREENING_INTERIOR,
  F3_RTU1_NORTH_PERIMETER_UFAD_PLENUM,
  ,
  Adiabatic,
  ,
  NoSun,
  NoWind,
  autocalculate,
  4,
  23.25,
  20,
  0.6,
  23.25,
  20,
  0,
  23.25,
  25,
  0,
  23.25,
  25,
  0.6;

BuildingSurface:Detailed,
  F3_RTU1_NORTH_PERIMETER_UFAD_PLENUM_NORTH_WALL,
  Wall,
  SCREENING_EXTERIOR_WALL,
  F3_RTU1_NORTH_PERIMETER_UFAD_PLENUM,
  ,
  Outdoors,
  ,
  SunExposed,
  WindExposed,
  autocalculate,
  4,
  23.25,
  25,
  0.6,
  23.25,
  25,
  0,
  0,
  25,
  0,
  0,
  25,
  0.6;

BuildingSurface:Detailed,
  F3_RTU1_NORTH_PERIMETER_UFAD_PLENUM_WEST_WALL,
  Wall,
  SCREENING_EXTERIOR_WALL,
  F3_RTU1_NORTH_PERIMETER_UFAD_PLENUM,
  ,
  Outdoors,
  ,
  SunExposed,
  WindExposed,
  autocalculate,
  4,
  0,
  25,
  0.6,
  0,
  25,
  0,
  0,
  20,
  0,
  0,
  20,
  0.6;

BuildingSurface:Detailed,
  F3_RTU1_NORTH_PERIMETER_UFAD_PLENUM_FLOOR,
  Floor,
  SCREENING_FLOOR,
  F3_RTU1_NORTH_PERIMETER_UFAD_PLENUM,
  ,
  Adiabatic,
  ,
  NoSun,
  NoWind,
  autocalculate,
  4,
  0,
  20,
  0,
  0,
  25,
  0,
  23.25,
  25,
  0,
  23.25,
  20,
  0;

BuildingSurface:Detailed,
  F3_RTU1_NORTH_PERIMETER_UFAD_PLENUM_CEILING,
  Ceiling,
  SCREENING_INTERIOR,
  F3_RTU1_NORTH_PERIMETER_UFAD_PLENUM,
  ,
  Adiabatic,
  ,
  NoSun,
  NoWind,
  autocalculate,
  4,
  0,
  25,
  0.6,
  0,
  20,
  0.6,
  23.25,
  20,
  0.6,
  23.25,
  25,
  0.6;

BuildingSurface:Detailed,
  F3_RTU1_NORTH_PERIMETER_SOUTH_WALL,
  Wall,
  SCREENING_INTERIOR,
  F3_RTU1_NORTH_PERIMETER,
  ,
  Adiabatic,
  ,
  NoSun,
  NoWind,
  autocalculate,
  4,
  0,
  20,
  4,
  0,
  20,
  0.6,
  23.25,
  20,
  0.6,
  23.25,
  20,
  4;

BuildingSurface:Detailed,
  F3_RTU1_NORTH_PERIMETER_EAST_WALL,
  Wall,
  SCREENING_INTERIOR,
  F3_RTU1_NORTH_PERIMETER,
  ,
  Adiabatic,
  ,
  NoSun,
  NoWind,
  autocalculate,
  4,
  23.25,
  20,
  4,
  23.25,
  20,
  0.6,
  23.25,
  25,
  0.6,
  23.25,
  25,
  4;

BuildingSurface:Detailed,
  F3_RTU1_NORTH_PERIMETER_NORTH_WALL,
  Wall,
  SCREENING_EXTERIOR_WALL,
  F3_RTU1_NORTH_PERIMETER,
  ,
  Outdoors,
  ,
  SunExposed,
  WindExposed,
  autocalculate,
  4,
  23.25,
  25,
  4,
  23.25,
  25,
  0.6,
  0,
  25,
  0.6,
  0,
  25,
  4;

BuildingSurface:Detailed,
  F3_RTU1_NORTH_PERIMETER_WEST_WALL,
  Wall,
  SCREENING_EXTERIOR_WALL,
  F3_RTU1_NORTH_PERIMETER,
  ,
  Outdoors,
  ,
  SunExposed,
  WindExposed,
  autocalculate,
  4,
  0,
  25,
  4,
  0,
  25,
  0.6,
  0,
  20,
  0.6,
  0,
  20,
  4;

BuildingSurface:Detailed,
  F3_RTU1_NORTH_PERIMETER_FLOOR,
  Floor,
  SCREENING_FLOOR,
  F3_RTU1_NORTH_PERIMETER,
  ,
  Adiabatic,
  ,
  NoSun,
  NoWind,
  autocalculate,
  4,
  0,
  20,
  0.6,
  0,
  25,
  0.6,
  23.25,
  25,
  0.6,
  23.25,
  20,
  0.6;

BuildingSurface:Detailed,
  F3_RTU1_NORTH_PERIMETER_CEILING,
  Ceiling,
  SCREENING_INTERIOR,
  F3_RTU1_NORTH_PERIMETER,
  ,
  Adiabatic,
  ,
  NoSun,
  NoWind,
  autocalculate,
  4,
  0,
  25,
  4,
  0,
  20,
  4,
  23.25,
  20,
  4,
  23.25,
  25,
  4;

FenestrationSurface:Detailed,
  F3_RTU1_NORTH_PERIMETER_NORTH_WINDOW,
  Window,
  SCREENING_WINDOW,
  F3_RTU1_NORTH_PERIMETER_NORTH_WALL,
  ,
  autocalculate,
  ,
  1,
  4,
  20.925,
  25,
  3.15,
  20.925,
  25,
  1.45,
  2.325,
  25,
  1.45,
  2.325,
  25,
  3.15;

FenestrationSurface:Detailed,
  F3_RTU1_NORTH_PERIMETER_WEST_WINDOW,
  Window,
  SCREENING_WINDOW,
  F3_RTU1_NORTH_PERIMETER_WEST_WALL,
  ,
  autocalculate,
  ,
  1,
  4,
  0,
  24.5,
  3.15,
  0,
  24.5,
  1.45,
  0,
  20.5,
  1.45,
  0,
  20.5,
  3.15;

BuildingSurface:Detailed,
  F3_RTU2_SOUTH_PERIMETER_UFAD_PLENUM_SOUTH_WALL,
  Wall,
  SCREENING_EXTERIOR_WALL,
  F3_RTU2_SOUTH_PERIMETER_UFAD_PLENUM,
  ,
  Outdoors,
  ,
  SunExposed,
  WindExposed,
  autocalculate,
  4,
  23.25,
  0,
  0.6,
  23.25,
  0,
  0,
  46.5,
  0,
  0,
  46.5,
  0,
  0.6;

BuildingSurface:Detailed,
  F3_RTU2_SOUTH_PERIMETER_UFAD_PLENUM_EAST_WALL,
  Wall,
  SCREENING_INTERIOR,
  F3_RTU2_SOUTH_PERIMETER_UFAD_PLENUM,
  ,
  Adiabatic,
  ,
  NoSun,
  NoWind,
  autocalculate,
  4,
  46.5,
  0,
  0.6,
  46.5,
  0,
  0,
  46.5,
  5,
  0,
  46.5,
  5,
  0.6;

BuildingSurface:Detailed,
  F3_RTU2_SOUTH_PERIMETER_UFAD_PLENUM_NORTH_WALL,
  Wall,
  SCREENING_INTERIOR,
  F3_RTU2_SOUTH_PERIMETER_UFAD_PLENUM,
  ,
  Adiabatic,
  ,
  NoSun,
  NoWind,
  autocalculate,
  4,
  46.5,
  5,
  0.6,
  46.5,
  5,
  0,
  23.25,
  5,
  0,
  23.25,
  5,
  0.6;

BuildingSurface:Detailed,
  F3_RTU2_SOUTH_PERIMETER_UFAD_PLENUM_WEST_WALL,
  Wall,
  SCREENING_INTERIOR,
  F3_RTU2_SOUTH_PERIMETER_UFAD_PLENUM,
  ,
  Adiabatic,
  ,
  NoSun,
  NoWind,
  autocalculate,
  4,
  23.25,
  5,
  0.6,
  23.25,
  5,
  0,
  23.25,
  0,
  0,
  23.25,
  0,
  0.6;

BuildingSurface:Detailed,
  F3_RTU2_SOUTH_PERIMETER_UFAD_PLENUM_FLOOR,
  Floor,
  SCREENING_FLOOR,
  F3_RTU2_SOUTH_PERIMETER_UFAD_PLENUM,
  ,
  Adiabatic,
  ,
  NoSun,
  NoWind,
  autocalculate,
  4,
  23.25,
  0,
  0,
  23.25,
  5,
  0,
  46.5,
  5,
  0,
  46.5,
  0,
  0;

BuildingSurface:Detailed,
  F3_RTU2_SOUTH_PERIMETER_UFAD_PLENUM_CEILING,
  Ceiling,
  SCREENING_INTERIOR,
  F3_RTU2_SOUTH_PERIMETER_UFAD_PLENUM,
  ,
  Adiabatic,
  ,
  NoSun,
  NoWind,
  autocalculate,
  4,
  23.25,
  5,
  0.6,
  23.25,
  0,
  0.6,
  46.5,
  0,
  0.6,
  46.5,
  5,
  0.6;

BuildingSurface:Detailed,
  F3_RTU2_SOUTH_PERIMETER_SOUTH_WALL,
  Wall,
  SCREENING_EXTERIOR_WALL,
  F3_RTU2_SOUTH_PERIMETER,
  ,
  Outdoors,
  ,
  SunExposed,
  WindExposed,
  autocalculate,
  4,
  23.25,
  0,
  4,
  23.25,
  0,
  0.6,
  46.5,
  0,
  0.6,
  46.5,
  0,
  4;

BuildingSurface:Detailed,
  F3_RTU2_SOUTH_PERIMETER_EAST_WALL,
  Wall,
  SCREENING_INTERIOR,
  F3_RTU2_SOUTH_PERIMETER,
  ,
  Adiabatic,
  ,
  NoSun,
  NoWind,
  autocalculate,
  4,
  46.5,
  0,
  4,
  46.5,
  0,
  0.6,
  46.5,
  5,
  0.6,
  46.5,
  5,
  4;

BuildingSurface:Detailed,
  F3_RTU2_SOUTH_PERIMETER_NORTH_WALL,
  Wall,
  SCREENING_INTERIOR,
  F3_RTU2_SOUTH_PERIMETER,
  ,
  Adiabatic,
  ,
  NoSun,
  NoWind,
  autocalculate,
  4,
  46.5,
  5,
  4,
  46.5,
  5,
  0.6,
  23.25,
  5,
  0.6,
  23.25,
  5,
  4;

BuildingSurface:Detailed,
  F3_RTU2_SOUTH_PERIMETER_WEST_WALL,
  Wall,
  SCREENING_INTERIOR,
  F3_RTU2_SOUTH_PERIMETER,
  ,
  Adiabatic,
  ,
  NoSun,
  NoWind,
  autocalculate,
  4,
  23.25,
  5,
  4,
  23.25,
  5,
  0.6,
  23.25,
  0,
  0.6,
  23.25,
  0,
  4;

BuildingSurface:Detailed,
  F3_RTU2_SOUTH_PERIMETER_FLOOR,
  Floor,
  SCREENING_FLOOR,
  F3_RTU2_SOUTH_PERIMETER,
  ,
  Adiabatic,
  ,
  NoSun,
  NoWind,
  autocalculate,
  4,
  23.25,
  0,
  0.6,
  23.25,
  5,
  0.6,
  46.5,
  5,
  0.6,
  46.5,
  0,
  0.6;

BuildingSurface:Detailed,
  F3_RTU2_SOUTH_PERIMETER_CEILING,
  Ceiling,
  SCREENING_INTERIOR,
  F3_RTU2_SOUTH_PERIMETER,
  ,
  Adiabatic,
  ,
  NoSun,
  NoWind,
  autocalculate,
  4,
  23.25,
  5,
  4,
  23.25,
  0,
  4,
  46.5,
  0,
  4,
  46.5,
  5,
  4;

FenestrationSurface:Detailed,
  F3_RTU2_SOUTH_PERIMETER_SOUTH_WINDOW,
  Window,
  SCREENING_WINDOW,
  F3_RTU2_SOUTH_PERIMETER_SOUTH_WALL,
  ,
  autocalculate,
  ,
  1,
  4,
  25.575,
  0,
  3.15,
  25.575,
  0,
  1.45,
  44.175,
  0,
  1.45,
  44.175,
  0,
  3.15;

BuildingSurface:Detailed,
  F3_RTU2_CORE_UFAD_PLENUM_SOUTH_WALL,
  Wall,
  SCREENING_INTERIOR,
  F3_RTU2_CORE_UFAD_PLENUM,
  ,
  Adiabatic,
  ,
  NoSun,
  NoWind,
  autocalculate,
  4,
  23.25,
  5,
  0.6,
  23.25,
  5,
  0,
  46.5,
  5,
  0,
  46.5,
  5,
  0.6;

BuildingSurface:Detailed,
  F3_RTU2_CORE_UFAD_PLENUM_EAST_WALL,
  Wall,
  SCREENING_INTERIOR,
  F3_RTU2_CORE_UFAD_PLENUM,
  ,
  Adiabatic,
  ,
  NoSun,
  NoWind,
  autocalculate,
  4,
  46.5,
  5,
  0.6,
  46.5,
  5,
  0,
  46.5,
  20,
  0,
  46.5,
  20,
  0.6;

BuildingSurface:Detailed,
  F3_RTU2_CORE_UFAD_PLENUM_NORTH_WALL,
  Wall,
  SCREENING_INTERIOR,
  F3_RTU2_CORE_UFAD_PLENUM,
  ,
  Adiabatic,
  ,
  NoSun,
  NoWind,
  autocalculate,
  4,
  46.5,
  20,
  0.6,
  46.5,
  20,
  0,
  23.25,
  20,
  0,
  23.25,
  20,
  0.6;

BuildingSurface:Detailed,
  F3_RTU2_CORE_UFAD_PLENUM_WEST_WALL,
  Wall,
  SCREENING_INTERIOR,
  F3_RTU2_CORE_UFAD_PLENUM,
  ,
  Adiabatic,
  ,
  NoSun,
  NoWind,
  autocalculate,
  4,
  23.25,
  20,
  0.6,
  23.25,
  20,
  0,
  23.25,
  5,
  0,
  23.25,
  5,
  0.6;

BuildingSurface:Detailed,
  F3_RTU2_CORE_UFAD_PLENUM_FLOOR,
  Floor,
  SCREENING_FLOOR,
  F3_RTU2_CORE_UFAD_PLENUM,
  ,
  Adiabatic,
  ,
  NoSun,
  NoWind,
  autocalculate,
  4,
  23.25,
  5,
  0,
  23.25,
  20,
  0,
  46.5,
  20,
  0,
  46.5,
  5,
  0;

BuildingSurface:Detailed,
  F3_RTU2_CORE_UFAD_PLENUM_CEILING,
  Ceiling,
  SCREENING_INTERIOR,
  F3_RTU2_CORE_UFAD_PLENUM,
  ,
  Adiabatic,
  ,
  NoSun,
  NoWind,
  autocalculate,
  4,
  23.25,
  20,
  0.6,
  23.25,
  5,
  0.6,
  46.5,
  5,
  0.6,
  46.5,
  20,
  0.6;

BuildingSurface:Detailed,
  F3_RTU2_CORE_SOUTH_WALL,
  Wall,
  SCREENING_INTERIOR,
  F3_RTU2_CORE,
  ,
  Adiabatic,
  ,
  NoSun,
  NoWind,
  autocalculate,
  4,
  23.25,
  5,
  4,
  23.25,
  5,
  0.6,
  46.5,
  5,
  0.6,
  46.5,
  5,
  4;

BuildingSurface:Detailed,
  F3_RTU2_CORE_EAST_WALL,
  Wall,
  SCREENING_INTERIOR,
  F3_RTU2_CORE,
  ,
  Adiabatic,
  ,
  NoSun,
  NoWind,
  autocalculate,
  4,
  46.5,
  5,
  4,
  46.5,
  5,
  0.6,
  46.5,
  20,
  0.6,
  46.5,
  20,
  4;

BuildingSurface:Detailed,
  F3_RTU2_CORE_NORTH_WALL,
  Wall,
  SCREENING_INTERIOR,
  F3_RTU2_CORE,
  ,
  Adiabatic,
  ,
  NoSun,
  NoWind,
  autocalculate,
  4,
  46.5,
  20,
  4,
  46.5,
  20,
  0.6,
  23.25,
  20,
  0.6,
  23.25,
  20,
  4;

BuildingSurface:Detailed,
  F3_RTU2_CORE_WEST_WALL,
  Wall,
  SCREENING_INTERIOR,
  F3_RTU2_CORE,
  ,
  Adiabatic,
  ,
  NoSun,
  NoWind,
  autocalculate,
  4,
  23.25,
  20,
  4,
  23.25,
  20,
  0.6,
  23.25,
  5,
  0.6,
  23.25,
  5,
  4;

BuildingSurface:Detailed,
  F3_RTU2_CORE_FLOOR,
  Floor,
  SCREENING_FLOOR,
  F3_RTU2_CORE,
  ,
  Adiabatic,
  ,
  NoSun,
  NoWind,
  autocalculate,
  4,
  23.25,
  5,
  0.6,
  23.25,
  20,
  0.6,
  46.5,
  20,
  0.6,
  46.5,
  5,
  0.6;

BuildingSurface:Detailed,
  F3_RTU2_CORE_CEILING,
  Ceiling,
  SCREENING_INTERIOR,
  F3_RTU2_CORE,
  ,
  Adiabatic,
  ,
  NoSun,
  NoWind,
  autocalculate,
  4,
  23.25,
  20,
  4,
  23.25,
  5,
  4,
  46.5,
  5,
  4,
  46.5,
  20,
  4;

BuildingSurface:Detailed,
  F3_RTU2_NORTH_PERIMETER_UFAD_PLENUM_SOUTH_WALL,
  Wall,
  SCREENING_INTERIOR,
  F3_RTU2_NORTH_PERIMETER_UFAD_PLENUM,
  ,
  Adiabatic,
  ,
  NoSun,
  NoWind,
  autocalculate,
  4,
  23.25,
  20,
  0.6,
  23.25,
  20,
  0,
  46.5,
  20,
  0,
  46.5,
  20,
  0.6;

BuildingSurface:Detailed,
  F3_RTU2_NORTH_PERIMETER_UFAD_PLENUM_EAST_WALL,
  Wall,
  SCREENING_INTERIOR,
  F3_RTU2_NORTH_PERIMETER_UFAD_PLENUM,
  ,
  Adiabatic,
  ,
  NoSun,
  NoWind,
  autocalculate,
  4,
  46.5,
  20,
  0.6,
  46.5,
  20,
  0,
  46.5,
  25,
  0,
  46.5,
  25,
  0.6;

BuildingSurface:Detailed,
  F3_RTU2_NORTH_PERIMETER_UFAD_PLENUM_NORTH_WALL,
  Wall,
  SCREENING_EXTERIOR_WALL,
  F3_RTU2_NORTH_PERIMETER_UFAD_PLENUM,
  ,
  Outdoors,
  ,
  SunExposed,
  WindExposed,
  autocalculate,
  4,
  46.5,
  25,
  0.6,
  46.5,
  25,
  0,
  23.25,
  25,
  0,
  23.25,
  25,
  0.6;

BuildingSurface:Detailed,
  F3_RTU2_NORTH_PERIMETER_UFAD_PLENUM_WEST_WALL,
  Wall,
  SCREENING_INTERIOR,
  F3_RTU2_NORTH_PERIMETER_UFAD_PLENUM,
  ,
  Adiabatic,
  ,
  NoSun,
  NoWind,
  autocalculate,
  4,
  23.25,
  25,
  0.6,
  23.25,
  25,
  0,
  23.25,
  20,
  0,
  23.25,
  20,
  0.6;

BuildingSurface:Detailed,
  F3_RTU2_NORTH_PERIMETER_UFAD_PLENUM_FLOOR,
  Floor,
  SCREENING_FLOOR,
  F3_RTU2_NORTH_PERIMETER_UFAD_PLENUM,
  ,
  Adiabatic,
  ,
  NoSun,
  NoWind,
  autocalculate,
  4,
  23.25,
  20,
  0,
  23.25,
  25,
  0,
  46.5,
  25,
  0,
  46.5,
  20,
  0;

BuildingSurface:Detailed,
  F3_RTU2_NORTH_PERIMETER_UFAD_PLENUM_CEILING,
  Ceiling,
  SCREENING_INTERIOR,
  F3_RTU2_NORTH_PERIMETER_UFAD_PLENUM,
  ,
  Adiabatic,
  ,
  NoSun,
  NoWind,
  autocalculate,
  4,
  23.25,
  25,
  0.6,
  23.25,
  20,
  0.6,
  46.5,
  20,
  0.6,
  46.5,
  25,
  0.6;

BuildingSurface:Detailed,
  F3_RTU2_NORTH_PERIMETER_SOUTH_WALL,
  Wall,
  SCREENING_INTERIOR,
  F3_RTU2_NORTH_PERIMETER,
  ,
  Adiabatic,
  ,
  NoSun,
  NoWind,
  autocalculate,
  4,
  23.25,
  20,
  4,
  23.25,
  20,
  0.6,
  46.5,
  20,
  0.6,
  46.5,
  20,
  4;

BuildingSurface:Detailed,
  F3_RTU2_NORTH_PERIMETER_EAST_WALL,
  Wall,
  SCREENING_INTERIOR,
  F3_RTU2_NORTH_PERIMETER,
  ,
  Adiabatic,
  ,
  NoSun,
  NoWind,
  autocalculate,
  4,
  46.5,
  20,
  4,
  46.5,
  20,
  0.6,
  46.5,
  25,
  0.6,
  46.5,
  25,
  4;

BuildingSurface:Detailed,
  F3_RTU2_NORTH_PERIMETER_NORTH_WALL,
  Wall,
  SCREENING_EXTERIOR_WALL,
  F3_RTU2_NORTH_PERIMETER,
  ,
  Outdoors,
  ,
  SunExposed,
  WindExposed,
  autocalculate,
  4,
  46.5,
  25,
  4,
  46.5,
  25,
  0.6,
  23.25,
  25,
  0.6,
  23.25,
  25,
  4;

BuildingSurface:Detailed,
  F3_RTU2_NORTH_PERIMETER_WEST_WALL,
  Wall,
  SCREENING_INTERIOR,
  F3_RTU2_NORTH_PERIMETER,
  ,
  Adiabatic,
  ,
  NoSun,
  NoWind,
  autocalculate,
  4,
  23.25,
  25,
  4,
  23.25,
  25,
  0.6,
  23.25,
  20,
  0.6,
  23.25,
  20,
  4;

BuildingSurface:Detailed,
  F3_RTU2_NORTH_PERIMETER_FLOOR,
  Floor,
  SCREENING_FLOOR,
  F3_RTU2_NORTH_PERIMETER,
  ,
  Adiabatic,
  ,
  NoSun,
  NoWind,
  autocalculate,
  4,
  23.25,
  20,
  0.6,
  23.25,
  25,
  0.6,
  46.5,
  25,
  0.6,
  46.5,
  20,
  0.6;

BuildingSurface:Detailed,
  F3_RTU2_NORTH_PERIMETER_CEILING,
  Ceiling,
  SCREENING_INTERIOR,
  F3_RTU2_NORTH_PERIMETER,
  ,
  Adiabatic,
  ,
  NoSun,
  NoWind,
  autocalculate,
  4,
  23.25,
  25,
  4,
  23.25,
  20,
  4,
  46.5,
  20,
  4,
  46.5,
  25,
  4;

FenestrationSurface:Detailed,
  F3_RTU2_NORTH_PERIMETER_NORTH_WINDOW,
  Window,
  SCREENING_WINDOW,
  F3_RTU2_NORTH_PERIMETER_NORTH_WALL,
  ,
  autocalculate,
  ,
  1,
  4,
  44.175,
  25,
  3.15,
  44.175,
  25,
  1.45,
  25.575,
  25,
  1.45,
  25.575,
  25,
  3.15;

BuildingSurface:Detailed,
  F3_RTU3_SOUTH_PERIMETER_UFAD_PLENUM_SOUTH_WALL,
  Wall,
  SCREENING_EXTERIOR_WALL,
  F3_RTU3_SOUTH_PERIMETER_UFAD_PLENUM,
  ,
  Outdoors,
  ,
  SunExposed,
  WindExposed,
  autocalculate,
  4,
  46.5,
  0,
  0.6,
  46.5,
  0,
  0,
  69.75,
  0,
  0,
  69.75,
  0,
  0.6;

BuildingSurface:Detailed,
  F3_RTU3_SOUTH_PERIMETER_UFAD_PLENUM_EAST_WALL,
  Wall,
  SCREENING_INTERIOR,
  F3_RTU3_SOUTH_PERIMETER_UFAD_PLENUM,
  ,
  Adiabatic,
  ,
  NoSun,
  NoWind,
  autocalculate,
  4,
  69.75,
  0,
  0.6,
  69.75,
  0,
  0,
  69.75,
  5,
  0,
  69.75,
  5,
  0.6;

BuildingSurface:Detailed,
  F3_RTU3_SOUTH_PERIMETER_UFAD_PLENUM_NORTH_WALL,
  Wall,
  SCREENING_INTERIOR,
  F3_RTU3_SOUTH_PERIMETER_UFAD_PLENUM,
  ,
  Adiabatic,
  ,
  NoSun,
  NoWind,
  autocalculate,
  4,
  69.75,
  5,
  0.6,
  69.75,
  5,
  0,
  46.5,
  5,
  0,
  46.5,
  5,
  0.6;

BuildingSurface:Detailed,
  F3_RTU3_SOUTH_PERIMETER_UFAD_PLENUM_WEST_WALL,
  Wall,
  SCREENING_INTERIOR,
  F3_RTU3_SOUTH_PERIMETER_UFAD_PLENUM,
  ,
  Adiabatic,
  ,
  NoSun,
  NoWind,
  autocalculate,
  4,
  46.5,
  5,
  0.6,
  46.5,
  5,
  0,
  46.5,
  0,
  0,
  46.5,
  0,
  0.6;

BuildingSurface:Detailed,
  F3_RTU3_SOUTH_PERIMETER_UFAD_PLENUM_FLOOR,
  Floor,
  SCREENING_FLOOR,
  F3_RTU3_SOUTH_PERIMETER_UFAD_PLENUM,
  ,
  Adiabatic,
  ,
  NoSun,
  NoWind,
  autocalculate,
  4,
  46.5,
  0,
  0,
  46.5,
  5,
  0,
  69.75,
  5,
  0,
  69.75,
  0,
  0;

BuildingSurface:Detailed,
  F3_RTU3_SOUTH_PERIMETER_UFAD_PLENUM_CEILING,
  Ceiling,
  SCREENING_INTERIOR,
  F3_RTU3_SOUTH_PERIMETER_UFAD_PLENUM,
  ,
  Adiabatic,
  ,
  NoSun,
  NoWind,
  autocalculate,
  4,
  46.5,
  5,
  0.6,
  46.5,
  0,
  0.6,
  69.75,
  0,
  0.6,
  69.75,
  5,
  0.6;

BuildingSurface:Detailed,
  F3_RTU3_SOUTH_PERIMETER_SOUTH_WALL,
  Wall,
  SCREENING_EXTERIOR_WALL,
  F3_RTU3_SOUTH_PERIMETER,
  ,
  Outdoors,
  ,
  SunExposed,
  WindExposed,
  autocalculate,
  4,
  46.5,
  0,
  4,
  46.5,
  0,
  0.6,
  69.75,
  0,
  0.6,
  69.75,
  0,
  4;

BuildingSurface:Detailed,
  F3_RTU3_SOUTH_PERIMETER_EAST_WALL,
  Wall,
  SCREENING_INTERIOR,
  F3_RTU3_SOUTH_PERIMETER,
  ,
  Adiabatic,
  ,
  NoSun,
  NoWind,
  autocalculate,
  4,
  69.75,
  0,
  4,
  69.75,
  0,
  0.6,
  69.75,
  5,
  0.6,
  69.75,
  5,
  4;

BuildingSurface:Detailed,
  F3_RTU3_SOUTH_PERIMETER_NORTH_WALL,
  Wall,
  SCREENING_INTERIOR,
  F3_RTU3_SOUTH_PERIMETER,
  ,
  Adiabatic,
  ,
  NoSun,
  NoWind,
  autocalculate,
  4,
  69.75,
  5,
  4,
  69.75,
  5,
  0.6,
  46.5,
  5,
  0.6,
  46.5,
  5,
  4;

BuildingSurface:Detailed,
  F3_RTU3_SOUTH_PERIMETER_WEST_WALL,
  Wall,
  SCREENING_INTERIOR,
  F3_RTU3_SOUTH_PERIMETER,
  ,
  Adiabatic,
  ,
  NoSun,
  NoWind,
  autocalculate,
  4,
  46.5,
  5,
  4,
  46.5,
  5,
  0.6,
  46.5,
  0,
  0.6,
  46.5,
  0,
  4;

BuildingSurface:Detailed,
  F3_RTU3_SOUTH_PERIMETER_FLOOR,
  Floor,
  SCREENING_FLOOR,
  F3_RTU3_SOUTH_PERIMETER,
  ,
  Adiabatic,
  ,
  NoSun,
  NoWind,
  autocalculate,
  4,
  46.5,
  0,
  0.6,
  46.5,
  5,
  0.6,
  69.75,
  5,
  0.6,
  69.75,
  0,
  0.6;

BuildingSurface:Detailed,
  F3_RTU3_SOUTH_PERIMETER_CEILING,
  Ceiling,
  SCREENING_INTERIOR,
  F3_RTU3_SOUTH_PERIMETER,
  ,
  Adiabatic,
  ,
  NoSun,
  NoWind,
  autocalculate,
  4,
  46.5,
  5,
  4,
  46.5,
  0,
  4,
  69.75,
  0,
  4,
  69.75,
  5,
  4;

FenestrationSurface:Detailed,
  F3_RTU3_SOUTH_PERIMETER_SOUTH_WINDOW,
  Window,
  SCREENING_WINDOW,
  F3_RTU3_SOUTH_PERIMETER_SOUTH_WALL,
  ,
  autocalculate,
  ,
  1,
  4,
  48.825,
  0,
  3.15,
  48.825,
  0,
  1.45,
  67.425,
  0,
  1.45,
  67.425,
  0,
  3.15;

BuildingSurface:Detailed,
  F3_RTU3_CORE_UFAD_PLENUM_SOUTH_WALL,
  Wall,
  SCREENING_INTERIOR,
  F3_RTU3_CORE_UFAD_PLENUM,
  ,
  Adiabatic,
  ,
  NoSun,
  NoWind,
  autocalculate,
  4,
  46.5,
  5,
  0.6,
  46.5,
  5,
  0,
  69.75,
  5,
  0,
  69.75,
  5,
  0.6;

BuildingSurface:Detailed,
  F3_RTU3_CORE_UFAD_PLENUM_EAST_WALL,
  Wall,
  SCREENING_INTERIOR,
  F3_RTU3_CORE_UFAD_PLENUM,
  ,
  Adiabatic,
  ,
  NoSun,
  NoWind,
  autocalculate,
  4,
  69.75,
  5,
  0.6,
  69.75,
  5,
  0,
  69.75,
  20,
  0,
  69.75,
  20,
  0.6;

BuildingSurface:Detailed,
  F3_RTU3_CORE_UFAD_PLENUM_NORTH_WALL,
  Wall,
  SCREENING_INTERIOR,
  F3_RTU3_CORE_UFAD_PLENUM,
  ,
  Adiabatic,
  ,
  NoSun,
  NoWind,
  autocalculate,
  4,
  69.75,
  20,
  0.6,
  69.75,
  20,
  0,
  46.5,
  20,
  0,
  46.5,
  20,
  0.6;

BuildingSurface:Detailed,
  F3_RTU3_CORE_UFAD_PLENUM_WEST_WALL,
  Wall,
  SCREENING_INTERIOR,
  F3_RTU3_CORE_UFAD_PLENUM,
  ,
  Adiabatic,
  ,
  NoSun,
  NoWind,
  autocalculate,
  4,
  46.5,
  20,
  0.6,
  46.5,
  20,
  0,
  46.5,
  5,
  0,
  46.5,
  5,
  0.6;

BuildingSurface:Detailed,
  F3_RTU3_CORE_UFAD_PLENUM_FLOOR,
  Floor,
  SCREENING_FLOOR,
  F3_RTU3_CORE_UFAD_PLENUM,
  ,
  Adiabatic,
  ,
  NoSun,
  NoWind,
  autocalculate,
  4,
  46.5,
  5,
  0,
  46.5,
  20,
  0,
  69.75,
  20,
  0,
  69.75,
  5,
  0;

BuildingSurface:Detailed,
  F3_RTU3_CORE_UFAD_PLENUM_CEILING,
  Ceiling,
  SCREENING_INTERIOR,
  F3_RTU3_CORE_UFAD_PLENUM,
  ,
  Adiabatic,
  ,
  NoSun,
  NoWind,
  autocalculate,
  4,
  46.5,
  20,
  0.6,
  46.5,
  5,
  0.6,
  69.75,
  5,
  0.6,
  69.75,
  20,
  0.6;

BuildingSurface:Detailed,
  F3_RTU3_CORE_SOUTH_WALL,
  Wall,
  SCREENING_INTERIOR,
  F3_RTU3_CORE,
  ,
  Adiabatic,
  ,
  NoSun,
  NoWind,
  autocalculate,
  4,
  46.5,
  5,
  4,
  46.5,
  5,
  0.6,
  69.75,
  5,
  0.6,
  69.75,
  5,
  4;

BuildingSurface:Detailed,
  F3_RTU3_CORE_EAST_WALL,
  Wall,
  SCREENING_INTERIOR,
  F3_RTU3_CORE,
  ,
  Adiabatic,
  ,
  NoSun,
  NoWind,
  autocalculate,
  4,
  69.75,
  5,
  4,
  69.75,
  5,
  0.6,
  69.75,
  20,
  0.6,
  69.75,
  20,
  4;

BuildingSurface:Detailed,
  F3_RTU3_CORE_NORTH_WALL,
  Wall,
  SCREENING_INTERIOR,
  F3_RTU3_CORE,
  ,
  Adiabatic,
  ,
  NoSun,
  NoWind,
  autocalculate,
  4,
  69.75,
  20,
  4,
  69.75,
  20,
  0.6,
  46.5,
  20,
  0.6,
  46.5,
  20,
  4;

BuildingSurface:Detailed,
  F3_RTU3_CORE_WEST_WALL,
  Wall,
  SCREENING_INTERIOR,
  F3_RTU3_CORE,
  ,
  Adiabatic,
  ,
  NoSun,
  NoWind,
  autocalculate,
  4,
  46.5,
  20,
  4,
  46.5,
  20,
  0.6,
  46.5,
  5,
  0.6,
  46.5,
  5,
  4;

BuildingSurface:Detailed,
  F3_RTU3_CORE_FLOOR,
  Floor,
  SCREENING_FLOOR,
  F3_RTU3_CORE,
  ,
  Adiabatic,
  ,
  NoSun,
  NoWind,
  autocalculate,
  4,
  46.5,
  5,
  0.6,
  46.5,
  20,
  0.6,
  69.75,
  20,
  0.6,
  69.75,
  5,
  0.6;

BuildingSurface:Detailed,
  F3_RTU3_CORE_CEILING,
  Ceiling,
  SCREENING_INTERIOR,
  F3_RTU3_CORE,
  ,
  Adiabatic,
  ,
  NoSun,
  NoWind,
  autocalculate,
  4,
  46.5,
  20,
  4,
  46.5,
  5,
  4,
  69.75,
  5,
  4,
  69.75,
  20,
  4;

BuildingSurface:Detailed,
  F3_RTU3_NORTH_PERIMETER_UFAD_PLENUM_SOUTH_WALL,
  Wall,
  SCREENING_INTERIOR,
  F3_RTU3_NORTH_PERIMETER_UFAD_PLENUM,
  ,
  Adiabatic,
  ,
  NoSun,
  NoWind,
  autocalculate,
  4,
  46.5,
  20,
  0.6,
  46.5,
  20,
  0,
  69.75,
  20,
  0,
  69.75,
  20,
  0.6;

BuildingSurface:Detailed,
  F3_RTU3_NORTH_PERIMETER_UFAD_PLENUM_EAST_WALL,
  Wall,
  SCREENING_INTERIOR,
  F3_RTU3_NORTH_PERIMETER_UFAD_PLENUM,
  ,
  Adiabatic,
  ,
  NoSun,
  NoWind,
  autocalculate,
  4,
  69.75,
  20,
  0.6,
  69.75,
  20,
  0,
  69.75,
  25,
  0,
  69.75,
  25,
  0.6;

BuildingSurface:Detailed,
  F3_RTU3_NORTH_PERIMETER_UFAD_PLENUM_NORTH_WALL,
  Wall,
  SCREENING_EXTERIOR_WALL,
  F3_RTU3_NORTH_PERIMETER_UFAD_PLENUM,
  ,
  Outdoors,
  ,
  SunExposed,
  WindExposed,
  autocalculate,
  4,
  69.75,
  25,
  0.6,
  69.75,
  25,
  0,
  46.5,
  25,
  0,
  46.5,
  25,
  0.6;

BuildingSurface:Detailed,
  F3_RTU3_NORTH_PERIMETER_UFAD_PLENUM_WEST_WALL,
  Wall,
  SCREENING_INTERIOR,
  F3_RTU3_NORTH_PERIMETER_UFAD_PLENUM,
  ,
  Adiabatic,
  ,
  NoSun,
  NoWind,
  autocalculate,
  4,
  46.5,
  25,
  0.6,
  46.5,
  25,
  0,
  46.5,
  20,
  0,
  46.5,
  20,
  0.6;

BuildingSurface:Detailed,
  F3_RTU3_NORTH_PERIMETER_UFAD_PLENUM_FLOOR,
  Floor,
  SCREENING_FLOOR,
  F3_RTU3_NORTH_PERIMETER_UFAD_PLENUM,
  ,
  Adiabatic,
  ,
  NoSun,
  NoWind,
  autocalculate,
  4,
  46.5,
  20,
  0,
  46.5,
  25,
  0,
  69.75,
  25,
  0,
  69.75,
  20,
  0;

BuildingSurface:Detailed,
  F3_RTU3_NORTH_PERIMETER_UFAD_PLENUM_CEILING,
  Ceiling,
  SCREENING_INTERIOR,
  F3_RTU3_NORTH_PERIMETER_UFAD_PLENUM,
  ,
  Adiabatic,
  ,
  NoSun,
  NoWind,
  autocalculate,
  4,
  46.5,
  25,
  0.6,
  46.5,
  20,
  0.6,
  69.75,
  20,
  0.6,
  69.75,
  25,
  0.6;

BuildingSurface:Detailed,
  F3_RTU3_NORTH_PERIMETER_SOUTH_WALL,
  Wall,
  SCREENING_INTERIOR,
  F3_RTU3_NORTH_PERIMETER,
  ,
  Adiabatic,
  ,
  NoSun,
  NoWind,
  autocalculate,
  4,
  46.5,
  20,
  4,
  46.5,
  20,
  0.6,
  69.75,
  20,
  0.6,
  69.75,
  20,
  4;

BuildingSurface:Detailed,
  F3_RTU3_NORTH_PERIMETER_EAST_WALL,
  Wall,
  SCREENING_INTERIOR,
  F3_RTU3_NORTH_PERIMETER,
  ,
  Adiabatic,
  ,
  NoSun,
  NoWind,
  autocalculate,
  4,
  69.75,
  20,
  4,
  69.75,
  20,
  0.6,
  69.75,
  25,
  0.6,
  69.75,
  25,
  4;

BuildingSurface:Detailed,
  F3_RTU3_NORTH_PERIMETER_NORTH_WALL,
  Wall,
  SCREENING_EXTERIOR_WALL,
  F3_RTU3_NORTH_PERIMETER,
  ,
  Outdoors,
  ,
  SunExposed,
  WindExposed,
  autocalculate,
  4,
  69.75,
  25,
  4,
  69.75,
  25,
  0.6,
  46.5,
  25,
  0.6,
  46.5,
  25,
  4;

BuildingSurface:Detailed,
  F3_RTU3_NORTH_PERIMETER_WEST_WALL,
  Wall,
  SCREENING_INTERIOR,
  F3_RTU3_NORTH_PERIMETER,
  ,
  Adiabatic,
  ,
  NoSun,
  NoWind,
  autocalculate,
  4,
  46.5,
  25,
  4,
  46.5,
  25,
  0.6,
  46.5,
  20,
  0.6,
  46.5,
  20,
  4;

BuildingSurface:Detailed,
  F3_RTU3_NORTH_PERIMETER_FLOOR,
  Floor,
  SCREENING_FLOOR,
  F3_RTU3_NORTH_PERIMETER,
  ,
  Adiabatic,
  ,
  NoSun,
  NoWind,
  autocalculate,
  4,
  46.5,
  20,
  0.6,
  46.5,
  25,
  0.6,
  69.75,
  25,
  0.6,
  69.75,
  20,
  0.6;

BuildingSurface:Detailed,
  F3_RTU3_NORTH_PERIMETER_CEILING,
  Ceiling,
  SCREENING_INTERIOR,
  F3_RTU3_NORTH_PERIMETER,
  ,
  Adiabatic,
  ,
  NoSun,
  NoWind,
  autocalculate,
  4,
  46.5,
  25,
  4,
  46.5,
  20,
  4,
  69.75,
  20,
  4,
  69.75,
  25,
  4;

FenestrationSurface:Detailed,
  F3_RTU3_NORTH_PERIMETER_NORTH_WINDOW,
  Window,
  SCREENING_WINDOW,
  F3_RTU3_NORTH_PERIMETER_NORTH_WALL,
  ,
  autocalculate,
  ,
  1,
  4,
  67.425,
  25,
  3.15,
  67.425,
  25,
  1.45,
  48.825,
  25,
  1.45,
  48.825,
  25,
  3.15;

BuildingSurface:Detailed,
  F3_RTU4_SOUTH_PERIMETER_UFAD_PLENUM_SOUTH_WALL,
  Wall,
  SCREENING_EXTERIOR_WALL,
  F3_RTU4_SOUTH_PERIMETER_UFAD_PLENUM,
  ,
  Outdoors,
  ,
  SunExposed,
  WindExposed,
  autocalculate,
  4,
  69.75,
  0,
  0.6,
  69.75,
  0,
  0,
  93,
  0,
  0,
  93,
  0,
  0.6;

BuildingSurface:Detailed,
  F3_RTU4_SOUTH_PERIMETER_UFAD_PLENUM_EAST_WALL,
  Wall,
  SCREENING_EXTERIOR_WALL,
  F3_RTU4_SOUTH_PERIMETER_UFAD_PLENUM,
  ,
  Outdoors,
  ,
  SunExposed,
  WindExposed,
  autocalculate,
  4,
  93,
  0,
  0.6,
  93,
  0,
  0,
  93,
  5,
  0,
  93,
  5,
  0.6;

BuildingSurface:Detailed,
  F3_RTU4_SOUTH_PERIMETER_UFAD_PLENUM_NORTH_WALL,
  Wall,
  SCREENING_INTERIOR,
  F3_RTU4_SOUTH_PERIMETER_UFAD_PLENUM,
  ,
  Adiabatic,
  ,
  NoSun,
  NoWind,
  autocalculate,
  4,
  93,
  5,
  0.6,
  93,
  5,
  0,
  69.75,
  5,
  0,
  69.75,
  5,
  0.6;

BuildingSurface:Detailed,
  F3_RTU4_SOUTH_PERIMETER_UFAD_PLENUM_WEST_WALL,
  Wall,
  SCREENING_INTERIOR,
  F3_RTU4_SOUTH_PERIMETER_UFAD_PLENUM,
  ,
  Adiabatic,
  ,
  NoSun,
  NoWind,
  autocalculate,
  4,
  69.75,
  5,
  0.6,
  69.75,
  5,
  0,
  69.75,
  0,
  0,
  69.75,
  0,
  0.6;

BuildingSurface:Detailed,
  F3_RTU4_SOUTH_PERIMETER_UFAD_PLENUM_FLOOR,
  Floor,
  SCREENING_FLOOR,
  F3_RTU4_SOUTH_PERIMETER_UFAD_PLENUM,
  ,
  Adiabatic,
  ,
  NoSun,
  NoWind,
  autocalculate,
  4,
  69.75,
  0,
  0,
  69.75,
  5,
  0,
  93,
  5,
  0,
  93,
  0,
  0;

BuildingSurface:Detailed,
  F3_RTU4_SOUTH_PERIMETER_UFAD_PLENUM_CEILING,
  Ceiling,
  SCREENING_INTERIOR,
  F3_RTU4_SOUTH_PERIMETER_UFAD_PLENUM,
  ,
  Adiabatic,
  ,
  NoSun,
  NoWind,
  autocalculate,
  4,
  69.75,
  5,
  0.6,
  69.75,
  0,
  0.6,
  93,
  0,
  0.6,
  93,
  5,
  0.6;

BuildingSurface:Detailed,
  F3_RTU4_SOUTH_PERIMETER_SOUTH_WALL,
  Wall,
  SCREENING_EXTERIOR_WALL,
  F3_RTU4_SOUTH_PERIMETER,
  ,
  Outdoors,
  ,
  SunExposed,
  WindExposed,
  autocalculate,
  4,
  69.75,
  0,
  4,
  69.75,
  0,
  0.6,
  93,
  0,
  0.6,
  93,
  0,
  4;

BuildingSurface:Detailed,
  F3_RTU4_SOUTH_PERIMETER_EAST_WALL,
  Wall,
  SCREENING_EXTERIOR_WALL,
  F3_RTU4_SOUTH_PERIMETER,
  ,
  Outdoors,
  ,
  SunExposed,
  WindExposed,
  autocalculate,
  4,
  93,
  0,
  4,
  93,
  0,
  0.6,
  93,
  5,
  0.6,
  93,
  5,
  4;

BuildingSurface:Detailed,
  F3_RTU4_SOUTH_PERIMETER_NORTH_WALL,
  Wall,
  SCREENING_INTERIOR,
  F3_RTU4_SOUTH_PERIMETER,
  ,
  Adiabatic,
  ,
  NoSun,
  NoWind,
  autocalculate,
  4,
  93,
  5,
  4,
  93,
  5,
  0.6,
  69.75,
  5,
  0.6,
  69.75,
  5,
  4;

BuildingSurface:Detailed,
  F3_RTU4_SOUTH_PERIMETER_WEST_WALL,
  Wall,
  SCREENING_INTERIOR,
  F3_RTU4_SOUTH_PERIMETER,
  ,
  Adiabatic,
  ,
  NoSun,
  NoWind,
  autocalculate,
  4,
  69.75,
  5,
  4,
  69.75,
  5,
  0.6,
  69.75,
  0,
  0.6,
  69.75,
  0,
  4;

BuildingSurface:Detailed,
  F3_RTU4_SOUTH_PERIMETER_FLOOR,
  Floor,
  SCREENING_FLOOR,
  F3_RTU4_SOUTH_PERIMETER,
  ,
  Adiabatic,
  ,
  NoSun,
  NoWind,
  autocalculate,
  4,
  69.75,
  0,
  0.6,
  69.75,
  5,
  0.6,
  93,
  5,
  0.6,
  93,
  0,
  0.6;

BuildingSurface:Detailed,
  F3_RTU4_SOUTH_PERIMETER_CEILING,
  Ceiling,
  SCREENING_INTERIOR,
  F3_RTU4_SOUTH_PERIMETER,
  ,
  Adiabatic,
  ,
  NoSun,
  NoWind,
  autocalculate,
  4,
  69.75,
  5,
  4,
  69.75,
  0,
  4,
  93,
  0,
  4,
  93,
  5,
  4;

FenestrationSurface:Detailed,
  F3_RTU4_SOUTH_PERIMETER_SOUTH_WINDOW,
  Window,
  SCREENING_WINDOW,
  F3_RTU4_SOUTH_PERIMETER_SOUTH_WALL,
  ,
  autocalculate,
  ,
  1,
  4,
  72.075,
  0,
  3.15,
  72.075,
  0,
  1.45,
  90.675,
  0,
  1.45,
  90.675,
  0,
  3.15;

FenestrationSurface:Detailed,
  F3_RTU4_SOUTH_PERIMETER_EAST_WINDOW,
  Window,
  SCREENING_WINDOW,
  F3_RTU4_SOUTH_PERIMETER_EAST_WALL,
  ,
  autocalculate,
  ,
  1,
  4,
  93,
  0.5,
  3.15,
  93,
  0.5,
  1.45,
  93,
  4.5,
  1.45,
  93,
  4.5,
  3.15;

BuildingSurface:Detailed,
  F3_RTU4_CORE_UFAD_PLENUM_SOUTH_WALL,
  Wall,
  SCREENING_INTERIOR,
  F3_RTU4_CORE_UFAD_PLENUM,
  ,
  Adiabatic,
  ,
  NoSun,
  NoWind,
  autocalculate,
  4,
  69.75,
  5,
  0.6,
  69.75,
  5,
  0,
  93,
  5,
  0,
  93,
  5,
  0.6;

BuildingSurface:Detailed,
  F3_RTU4_CORE_UFAD_PLENUM_EAST_WALL,
  Wall,
  SCREENING_EXTERIOR_WALL,
  F3_RTU4_CORE_UFAD_PLENUM,
  ,
  Outdoors,
  ,
  SunExposed,
  WindExposed,
  autocalculate,
  4,
  93,
  5,
  0.6,
  93,
  5,
  0,
  93,
  20,
  0,
  93,
  20,
  0.6;

BuildingSurface:Detailed,
  F3_RTU4_CORE_UFAD_PLENUM_NORTH_WALL,
  Wall,
  SCREENING_INTERIOR,
  F3_RTU4_CORE_UFAD_PLENUM,
  ,
  Adiabatic,
  ,
  NoSun,
  NoWind,
  autocalculate,
  4,
  93,
  20,
  0.6,
  93,
  20,
  0,
  69.75,
  20,
  0,
  69.75,
  20,
  0.6;

BuildingSurface:Detailed,
  F3_RTU4_CORE_UFAD_PLENUM_WEST_WALL,
  Wall,
  SCREENING_INTERIOR,
  F3_RTU4_CORE_UFAD_PLENUM,
  ,
  Adiabatic,
  ,
  NoSun,
  NoWind,
  autocalculate,
  4,
  69.75,
  20,
  0.6,
  69.75,
  20,
  0,
  69.75,
  5,
  0,
  69.75,
  5,
  0.6;

BuildingSurface:Detailed,
  F3_RTU4_CORE_UFAD_PLENUM_FLOOR,
  Floor,
  SCREENING_FLOOR,
  F3_RTU4_CORE_UFAD_PLENUM,
  ,
  Adiabatic,
  ,
  NoSun,
  NoWind,
  autocalculate,
  4,
  69.75,
  5,
  0,
  69.75,
  20,
  0,
  93,
  20,
  0,
  93,
  5,
  0;

BuildingSurface:Detailed,
  F3_RTU4_CORE_UFAD_PLENUM_CEILING,
  Ceiling,
  SCREENING_INTERIOR,
  F3_RTU4_CORE_UFAD_PLENUM,
  ,
  Adiabatic,
  ,
  NoSun,
  NoWind,
  autocalculate,
  4,
  69.75,
  20,
  0.6,
  69.75,
  5,
  0.6,
  93,
  5,
  0.6,
  93,
  20,
  0.6;

BuildingSurface:Detailed,
  F3_RTU4_CORE_SOUTH_WALL,
  Wall,
  SCREENING_INTERIOR,
  F3_RTU4_CORE,
  ,
  Adiabatic,
  ,
  NoSun,
  NoWind,
  autocalculate,
  4,
  69.75,
  5,
  4,
  69.75,
  5,
  0.6,
  93,
  5,
  0.6,
  93,
  5,
  4;

BuildingSurface:Detailed,
  F3_RTU4_CORE_EAST_WALL,
  Wall,
  SCREENING_EXTERIOR_WALL,
  F3_RTU4_CORE,
  ,
  Outdoors,
  ,
  SunExposed,
  WindExposed,
  autocalculate,
  4,
  93,
  5,
  4,
  93,
  5,
  0.6,
  93,
  20,
  0.6,
  93,
  20,
  4;

BuildingSurface:Detailed,
  F3_RTU4_CORE_NORTH_WALL,
  Wall,
  SCREENING_INTERIOR,
  F3_RTU4_CORE,
  ,
  Adiabatic,
  ,
  NoSun,
  NoWind,
  autocalculate,
  4,
  93,
  20,
  4,
  93,
  20,
  0.6,
  69.75,
  20,
  0.6,
  69.75,
  20,
  4;

BuildingSurface:Detailed,
  F3_RTU4_CORE_WEST_WALL,
  Wall,
  SCREENING_INTERIOR,
  F3_RTU4_CORE,
  ,
  Adiabatic,
  ,
  NoSun,
  NoWind,
  autocalculate,
  4,
  69.75,
  20,
  4,
  69.75,
  20,
  0.6,
  69.75,
  5,
  0.6,
  69.75,
  5,
  4;

BuildingSurface:Detailed,
  F3_RTU4_CORE_FLOOR,
  Floor,
  SCREENING_FLOOR,
  F3_RTU4_CORE,
  ,
  Adiabatic,
  ,
  NoSun,
  NoWind,
  autocalculate,
  4,
  69.75,
  5,
  0.6,
  69.75,
  20,
  0.6,
  93,
  20,
  0.6,
  93,
  5,
  0.6;

BuildingSurface:Detailed,
  F3_RTU4_CORE_CEILING,
  Ceiling,
  SCREENING_INTERIOR,
  F3_RTU4_CORE,
  ,
  Adiabatic,
  ,
  NoSun,
  NoWind,
  autocalculate,
  4,
  69.75,
  20,
  4,
  69.75,
  5,
  4,
  93,
  5,
  4,
  93,
  20,
  4;

FenestrationSurface:Detailed,
  F3_RTU4_CORE_EAST_WINDOW,
  Window,
  SCREENING_WINDOW,
  F3_RTU4_CORE_EAST_WALL,
  ,
  autocalculate,
  ,
  1,
  4,
  93,
  6.5,
  3.15,
  93,
  6.5,
  1.45,
  93,
  18.5,
  1.45,
  93,
  18.5,
  3.15;

BuildingSurface:Detailed,
  F3_RTU4_NORTH_PERIMETER_UFAD_PLENUM_SOUTH_WALL,
  Wall,
  SCREENING_INTERIOR,
  F3_RTU4_NORTH_PERIMETER_UFAD_PLENUM,
  ,
  Adiabatic,
  ,
  NoSun,
  NoWind,
  autocalculate,
  4,
  69.75,
  20,
  0.6,
  69.75,
  20,
  0,
  93,
  20,
  0,
  93,
  20,
  0.6;

BuildingSurface:Detailed,
  F3_RTU4_NORTH_PERIMETER_UFAD_PLENUM_EAST_WALL,
  Wall,
  SCREENING_EXTERIOR_WALL,
  F3_RTU4_NORTH_PERIMETER_UFAD_PLENUM,
  ,
  Outdoors,
  ,
  SunExposed,
  WindExposed,
  autocalculate,
  4,
  93,
  20,
  0.6,
  93,
  20,
  0,
  93,
  25,
  0,
  93,
  25,
  0.6;

BuildingSurface:Detailed,
  F3_RTU4_NORTH_PERIMETER_UFAD_PLENUM_NORTH_WALL,
  Wall,
  SCREENING_EXTERIOR_WALL,
  F3_RTU4_NORTH_PERIMETER_UFAD_PLENUM,
  ,
  Outdoors,
  ,
  SunExposed,
  WindExposed,
  autocalculate,
  4,
  93,
  25,
  0.6,
  93,
  25,
  0,
  69.75,
  25,
  0,
  69.75,
  25,
  0.6;

BuildingSurface:Detailed,
  F3_RTU4_NORTH_PERIMETER_UFAD_PLENUM_WEST_WALL,
  Wall,
  SCREENING_INTERIOR,
  F3_RTU4_NORTH_PERIMETER_UFAD_PLENUM,
  ,
  Adiabatic,
  ,
  NoSun,
  NoWind,
  autocalculate,
  4,
  69.75,
  25,
  0.6,
  69.75,
  25,
  0,
  69.75,
  20,
  0,
  69.75,
  20,
  0.6;

BuildingSurface:Detailed,
  F3_RTU4_NORTH_PERIMETER_UFAD_PLENUM_FLOOR,
  Floor,
  SCREENING_FLOOR,
  F3_RTU4_NORTH_PERIMETER_UFAD_PLENUM,
  ,
  Adiabatic,
  ,
  NoSun,
  NoWind,
  autocalculate,
  4,
  69.75,
  20,
  0,
  69.75,
  25,
  0,
  93,
  25,
  0,
  93,
  20,
  0;

BuildingSurface:Detailed,
  F3_RTU4_NORTH_PERIMETER_UFAD_PLENUM_CEILING,
  Ceiling,
  SCREENING_INTERIOR,
  F3_RTU4_NORTH_PERIMETER_UFAD_PLENUM,
  ,
  Adiabatic,
  ,
  NoSun,
  NoWind,
  autocalculate,
  4,
  69.75,
  25,
  0.6,
  69.75,
  20,
  0.6,
  93,
  20,
  0.6,
  93,
  25,
  0.6;

BuildingSurface:Detailed,
  F3_RTU4_NORTH_PERIMETER_SOUTH_WALL,
  Wall,
  SCREENING_INTERIOR,
  F3_RTU4_NORTH_PERIMETER,
  ,
  Adiabatic,
  ,
  NoSun,
  NoWind,
  autocalculate,
  4,
  69.75,
  20,
  4,
  69.75,
  20,
  0.6,
  93,
  20,
  0.6,
  93,
  20,
  4;

BuildingSurface:Detailed,
  F3_RTU4_NORTH_PERIMETER_EAST_WALL,
  Wall,
  SCREENING_EXTERIOR_WALL,
  F3_RTU4_NORTH_PERIMETER,
  ,
  Outdoors,
  ,
  SunExposed,
  WindExposed,
  autocalculate,
  4,
  93,
  20,
  4,
  93,
  20,
  0.6,
  93,
  25,
  0.6,
  93,
  25,
  4;

BuildingSurface:Detailed,
  F3_RTU4_NORTH_PERIMETER_NORTH_WALL,
  Wall,
  SCREENING_EXTERIOR_WALL,
  F3_RTU4_NORTH_PERIMETER,
  ,
  Outdoors,
  ,
  SunExposed,
  WindExposed,
  autocalculate,
  4,
  93,
  25,
  4,
  93,
  25,
  0.6,
  69.75,
  25,
  0.6,
  69.75,
  25,
  4;

BuildingSurface:Detailed,
  F3_RTU4_NORTH_PERIMETER_WEST_WALL,
  Wall,
  SCREENING_INTERIOR,
  F3_RTU4_NORTH_PERIMETER,
  ,
  Adiabatic,
  ,
  NoSun,
  NoWind,
  autocalculate,
  4,
  69.75,
  25,
  4,
  69.75,
  25,
  0.6,
  69.75,
  20,
  0.6,
  69.75,
  20,
  4;

BuildingSurface:Detailed,
  F3_RTU4_NORTH_PERIMETER_FLOOR,
  Floor,
  SCREENING_FLOOR,
  F3_RTU4_NORTH_PERIMETER,
  ,
  Adiabatic,
  ,
  NoSun,
  NoWind,
  autocalculate,
  4,
  69.75,
  20,
  0.6,
  69.75,
  25,
  0.6,
  93,
  25,
  0.6,
  93,
  20,
  0.6;

BuildingSurface:Detailed,
  F3_RTU4_NORTH_PERIMETER_CEILING,
  Ceiling,
  SCREENING_INTERIOR,
  F3_RTU4_NORTH_PERIMETER,
  ,
  Adiabatic,
  ,
  NoSun,
  NoWind,
  autocalculate,
  4,
  69.75,
  25,
  4,
  69.75,
  20,
  4,
  93,
  20,
  4,
  93,
  25,
  4;

FenestrationSurface:Detailed,
  F3_RTU4_NORTH_PERIMETER_NORTH_WINDOW,
  Window,
  SCREENING_WINDOW,
  F3_RTU4_NORTH_PERIMETER_NORTH_WALL,
  ,
  autocalculate,
  ,
  1,
  4,
  90.675,
  25,
  3.15,
  90.675,
  25,
  1.45,
  72.075,
  25,
  1.45,
  72.075,
  25,
  3.15;

FenestrationSurface:Detailed,
  F3_RTU4_NORTH_PERIMETER_EAST_WINDOW,
  Window,
  SCREENING_WINDOW,
  F3_RTU4_NORTH_PERIMETER_EAST_WALL,
  ,
  autocalculate,
  ,
  1,
  4,
  93,
  20.5,
  3.15,
  93,
  20.5,
  1.45,
  93,
  24.5,
  1.45,
  93,
  24.5,
  3.15;

BuildingSurface:Detailed,
  F4_RTU1_SOUTH_PERIMETER_UFAD_PLENUM_SOUTH_WALL,
  Wall,
  SCREENING_EXTERIOR_WALL,
  F4_RTU1_SOUTH_PERIMETER_UFAD_PLENUM,
  ,
  Outdoors,
  ,
  SunExposed,
  WindExposed,
  autocalculate,
  4,
  0,
  0,
  4.6,
  0,
  0,
  4,
  23.25,
  0,
  4,
  23.25,
  0,
  4.6;

BuildingSurface:Detailed,
  F4_RTU1_SOUTH_PERIMETER_UFAD_PLENUM_EAST_WALL,
  Wall,
  SCREENING_INTERIOR,
  F4_RTU1_SOUTH_PERIMETER_UFAD_PLENUM,
  ,
  Adiabatic,
  ,
  NoSun,
  NoWind,
  autocalculate,
  4,
  23.25,
  0,
  4.6,
  23.25,
  0,
  4,
  23.25,
  5,
  4,
  23.25,
  5,
  4.6;

BuildingSurface:Detailed,
  F4_RTU1_SOUTH_PERIMETER_UFAD_PLENUM_NORTH_WALL,
  Wall,
  SCREENING_INTERIOR,
  F4_RTU1_SOUTH_PERIMETER_UFAD_PLENUM,
  ,
  Adiabatic,
  ,
  NoSun,
  NoWind,
  autocalculate,
  4,
  23.25,
  5,
  4.6,
  23.25,
  5,
  4,
  0,
  5,
  4,
  0,
  5,
  4.6;

BuildingSurface:Detailed,
  F4_RTU1_SOUTH_PERIMETER_UFAD_PLENUM_WEST_WALL,
  Wall,
  SCREENING_EXTERIOR_WALL,
  F4_RTU1_SOUTH_PERIMETER_UFAD_PLENUM,
  ,
  Outdoors,
  ,
  SunExposed,
  WindExposed,
  autocalculate,
  4,
  0,
  5,
  4.6,
  0,
  5,
  4,
  0,
  0,
  4,
  0,
  0,
  4.6;

BuildingSurface:Detailed,
  F4_RTU1_SOUTH_PERIMETER_UFAD_PLENUM_FLOOR,
  Floor,
  SCREENING_FLOOR,
  F4_RTU1_SOUTH_PERIMETER_UFAD_PLENUM,
  ,
  Adiabatic,
  ,
  NoSun,
  NoWind,
  autocalculate,
  4,
  0,
  0,
  4,
  0,
  5,
  4,
  23.25,
  5,
  4,
  23.25,
  0,
  4;

BuildingSurface:Detailed,
  F4_RTU1_SOUTH_PERIMETER_UFAD_PLENUM_CEILING,
  Ceiling,
  SCREENING_INTERIOR,
  F4_RTU1_SOUTH_PERIMETER_UFAD_PLENUM,
  ,
  Adiabatic,
  ,
  NoSun,
  NoWind,
  autocalculate,
  4,
  0,
  5,
  4.6,
  0,
  0,
  4.6,
  23.25,
  0,
  4.6,
  23.25,
  5,
  4.6;

BuildingSurface:Detailed,
  F4_RTU1_SOUTH_PERIMETER_SOUTH_WALL,
  Wall,
  SCREENING_EXTERIOR_WALL,
  F4_RTU1_SOUTH_PERIMETER,
  ,
  Outdoors,
  ,
  SunExposed,
  WindExposed,
  autocalculate,
  4,
  0,
  0,
  8,
  0,
  0,
  4.6,
  23.25,
  0,
  4.6,
  23.25,
  0,
  8;

BuildingSurface:Detailed,
  F4_RTU1_SOUTH_PERIMETER_EAST_WALL,
  Wall,
  SCREENING_INTERIOR,
  F4_RTU1_SOUTH_PERIMETER,
  ,
  Adiabatic,
  ,
  NoSun,
  NoWind,
  autocalculate,
  4,
  23.25,
  0,
  8,
  23.25,
  0,
  4.6,
  23.25,
  5,
  4.6,
  23.25,
  5,
  8;

BuildingSurface:Detailed,
  F4_RTU1_SOUTH_PERIMETER_NORTH_WALL,
  Wall,
  SCREENING_INTERIOR,
  F4_RTU1_SOUTH_PERIMETER,
  ,
  Adiabatic,
  ,
  NoSun,
  NoWind,
  autocalculate,
  4,
  23.25,
  5,
  8,
  23.25,
  5,
  4.6,
  0,
  5,
  4.6,
  0,
  5,
  8;

BuildingSurface:Detailed,
  F4_RTU1_SOUTH_PERIMETER_WEST_WALL,
  Wall,
  SCREENING_EXTERIOR_WALL,
  F4_RTU1_SOUTH_PERIMETER,
  ,
  Outdoors,
  ,
  SunExposed,
  WindExposed,
  autocalculate,
  4,
  0,
  5,
  8,
  0,
  5,
  4.6,
  0,
  0,
  4.6,
  0,
  0,
  8;

BuildingSurface:Detailed,
  F4_RTU1_SOUTH_PERIMETER_FLOOR,
  Floor,
  SCREENING_FLOOR,
  F4_RTU1_SOUTH_PERIMETER,
  ,
  Adiabatic,
  ,
  NoSun,
  NoWind,
  autocalculate,
  4,
  0,
  0,
  4.6,
  0,
  5,
  4.6,
  23.25,
  5,
  4.6,
  23.25,
  0,
  4.6;

BuildingSurface:Detailed,
  F4_RTU1_SOUTH_PERIMETER_CEILING,
  Roof,
  SCREENING_ROOF,
  F4_RTU1_SOUTH_PERIMETER,
  ,
  Outdoors,
  ,
  SunExposed,
  WindExposed,
  autocalculate,
  4,
  0,
  5,
  8,
  0,
  0,
  8,
  23.25,
  0,
  8,
  23.25,
  5,
  8;

FenestrationSurface:Detailed,
  F4_RTU1_SOUTH_PERIMETER_SOUTH_WINDOW,
  Window,
  SCREENING_WINDOW,
  F4_RTU1_SOUTH_PERIMETER_SOUTH_WALL,
  ,
  autocalculate,
  ,
  1,
  4,
  2.325,
  0,
  7.15,
  2.325,
  0,
  5.45,
  20.925,
  0,
  5.45,
  20.925,
  0,
  7.15;

FenestrationSurface:Detailed,
  F4_RTU1_SOUTH_PERIMETER_WEST_WINDOW,
  Window,
  SCREENING_WINDOW,
  F4_RTU1_SOUTH_PERIMETER_WEST_WALL,
  ,
  autocalculate,
  ,
  1,
  4,
  0,
  4.5,
  7.15,
  0,
  4.5,
  5.45,
  0,
  0.5,
  5.45,
  0,
  0.5,
  7.15;

BuildingSurface:Detailed,
  F4_RTU1_CORE_UFAD_PLENUM_SOUTH_WALL,
  Wall,
  SCREENING_INTERIOR,
  F4_RTU1_CORE_UFAD_PLENUM,
  ,
  Adiabatic,
  ,
  NoSun,
  NoWind,
  autocalculate,
  4,
  0,
  5,
  4.6,
  0,
  5,
  4,
  23.25,
  5,
  4,
  23.25,
  5,
  4.6;

BuildingSurface:Detailed,
  F4_RTU1_CORE_UFAD_PLENUM_EAST_WALL,
  Wall,
  SCREENING_INTERIOR,
  F4_RTU1_CORE_UFAD_PLENUM,
  ,
  Adiabatic,
  ,
  NoSun,
  NoWind,
  autocalculate,
  4,
  23.25,
  5,
  4.6,
  23.25,
  5,
  4,
  23.25,
  20,
  4,
  23.25,
  20,
  4.6;

BuildingSurface:Detailed,
  F4_RTU1_CORE_UFAD_PLENUM_NORTH_WALL,
  Wall,
  SCREENING_INTERIOR,
  F4_RTU1_CORE_UFAD_PLENUM,
  ,
  Adiabatic,
  ,
  NoSun,
  NoWind,
  autocalculate,
  4,
  23.25,
  20,
  4.6,
  23.25,
  20,
  4,
  0,
  20,
  4,
  0,
  20,
  4.6;

BuildingSurface:Detailed,
  F4_RTU1_CORE_UFAD_PLENUM_WEST_WALL,
  Wall,
  SCREENING_EXTERIOR_WALL,
  F4_RTU1_CORE_UFAD_PLENUM,
  ,
  Outdoors,
  ,
  SunExposed,
  WindExposed,
  autocalculate,
  4,
  0,
  20,
  4.6,
  0,
  20,
  4,
  0,
  5,
  4,
  0,
  5,
  4.6;

BuildingSurface:Detailed,
  F4_RTU1_CORE_UFAD_PLENUM_FLOOR,
  Floor,
  SCREENING_FLOOR,
  F4_RTU1_CORE_UFAD_PLENUM,
  ,
  Adiabatic,
  ,
  NoSun,
  NoWind,
  autocalculate,
  4,
  0,
  5,
  4,
  0,
  20,
  4,
  23.25,
  20,
  4,
  23.25,
  5,
  4;

BuildingSurface:Detailed,
  F4_RTU1_CORE_UFAD_PLENUM_CEILING,
  Ceiling,
  SCREENING_INTERIOR,
  F4_RTU1_CORE_UFAD_PLENUM,
  ,
  Adiabatic,
  ,
  NoSun,
  NoWind,
  autocalculate,
  4,
  0,
  20,
  4.6,
  0,
  5,
  4.6,
  23.25,
  5,
  4.6,
  23.25,
  20,
  4.6;

BuildingSurface:Detailed,
  F4_RTU1_CORE_SOUTH_WALL,
  Wall,
  SCREENING_INTERIOR,
  F4_RTU1_CORE,
  ,
  Adiabatic,
  ,
  NoSun,
  NoWind,
  autocalculate,
  4,
  0,
  5,
  8,
  0,
  5,
  4.6,
  23.25,
  5,
  4.6,
  23.25,
  5,
  8;

BuildingSurface:Detailed,
  F4_RTU1_CORE_EAST_WALL,
  Wall,
  SCREENING_INTERIOR,
  F4_RTU1_CORE,
  ,
  Adiabatic,
  ,
  NoSun,
  NoWind,
  autocalculate,
  4,
  23.25,
  5,
  8,
  23.25,
  5,
  4.6,
  23.25,
  20,
  4.6,
  23.25,
  20,
  8;

BuildingSurface:Detailed,
  F4_RTU1_CORE_NORTH_WALL,
  Wall,
  SCREENING_INTERIOR,
  F4_RTU1_CORE,
  ,
  Adiabatic,
  ,
  NoSun,
  NoWind,
  autocalculate,
  4,
  23.25,
  20,
  8,
  23.25,
  20,
  4.6,
  0,
  20,
  4.6,
  0,
  20,
  8;

BuildingSurface:Detailed,
  F4_RTU1_CORE_WEST_WALL,
  Wall,
  SCREENING_EXTERIOR_WALL,
  F4_RTU1_CORE,
  ,
  Outdoors,
  ,
  SunExposed,
  WindExposed,
  autocalculate,
  4,
  0,
  20,
  8,
  0,
  20,
  4.6,
  0,
  5,
  4.6,
  0,
  5,
  8;

BuildingSurface:Detailed,
  F4_RTU1_CORE_FLOOR,
  Floor,
  SCREENING_FLOOR,
  F4_RTU1_CORE,
  ,
  Adiabatic,
  ,
  NoSun,
  NoWind,
  autocalculate,
  4,
  0,
  5,
  4.6,
  0,
  20,
  4.6,
  23.25,
  20,
  4.6,
  23.25,
  5,
  4.6;

BuildingSurface:Detailed,
  F4_RTU1_CORE_CEILING,
  Roof,
  SCREENING_ROOF,
  F4_RTU1_CORE,
  ,
  Outdoors,
  ,
  SunExposed,
  WindExposed,
  autocalculate,
  4,
  0,
  20,
  8,
  0,
  5,
  8,
  23.25,
  5,
  8,
  23.25,
  20,
  8;

FenestrationSurface:Detailed,
  F4_RTU1_CORE_WEST_WINDOW,
  Window,
  SCREENING_WINDOW,
  F4_RTU1_CORE_WEST_WALL,
  ,
  autocalculate,
  ,
  1,
  4,
  0,
  18.5,
  7.15,
  0,
  18.5,
  5.45,
  0,
  6.5,
  5.45,
  0,
  6.5,
  7.15;

BuildingSurface:Detailed,
  F4_RTU1_NORTH_PERIMETER_UFAD_PLENUM_SOUTH_WALL,
  Wall,
  SCREENING_INTERIOR,
  F4_RTU1_NORTH_PERIMETER_UFAD_PLENUM,
  ,
  Adiabatic,
  ,
  NoSun,
  NoWind,
  autocalculate,
  4,
  0,
  20,
  4.6,
  0,
  20,
  4,
  23.25,
  20,
  4,
  23.25,
  20,
  4.6;

BuildingSurface:Detailed,
  F4_RTU1_NORTH_PERIMETER_UFAD_PLENUM_EAST_WALL,
  Wall,
  SCREENING_INTERIOR,
  F4_RTU1_NORTH_PERIMETER_UFAD_PLENUM,
  ,
  Adiabatic,
  ,
  NoSun,
  NoWind,
  autocalculate,
  4,
  23.25,
  20,
  4.6,
  23.25,
  20,
  4,
  23.25,
  25,
  4,
  23.25,
  25,
  4.6;

BuildingSurface:Detailed,
  F4_RTU1_NORTH_PERIMETER_UFAD_PLENUM_NORTH_WALL,
  Wall,
  SCREENING_EXTERIOR_WALL,
  F4_RTU1_NORTH_PERIMETER_UFAD_PLENUM,
  ,
  Outdoors,
  ,
  SunExposed,
  WindExposed,
  autocalculate,
  4,
  23.25,
  25,
  4.6,
  23.25,
  25,
  4,
  0,
  25,
  4,
  0,
  25,
  4.6;

BuildingSurface:Detailed,
  F4_RTU1_NORTH_PERIMETER_UFAD_PLENUM_WEST_WALL,
  Wall,
  SCREENING_EXTERIOR_WALL,
  F4_RTU1_NORTH_PERIMETER_UFAD_PLENUM,
  ,
  Outdoors,
  ,
  SunExposed,
  WindExposed,
  autocalculate,
  4,
  0,
  25,
  4.6,
  0,
  25,
  4,
  0,
  20,
  4,
  0,
  20,
  4.6;

BuildingSurface:Detailed,
  F4_RTU1_NORTH_PERIMETER_UFAD_PLENUM_FLOOR,
  Floor,
  SCREENING_FLOOR,
  F4_RTU1_NORTH_PERIMETER_UFAD_PLENUM,
  ,
  Adiabatic,
  ,
  NoSun,
  NoWind,
  autocalculate,
  4,
  0,
  20,
  4,
  0,
  25,
  4,
  23.25,
  25,
  4,
  23.25,
  20,
  4;

BuildingSurface:Detailed,
  F4_RTU1_NORTH_PERIMETER_UFAD_PLENUM_CEILING,
  Ceiling,
  SCREENING_INTERIOR,
  F4_RTU1_NORTH_PERIMETER_UFAD_PLENUM,
  ,
  Adiabatic,
  ,
  NoSun,
  NoWind,
  autocalculate,
  4,
  0,
  25,
  4.6,
  0,
  20,
  4.6,
  23.25,
  20,
  4.6,
  23.25,
  25,
  4.6;

BuildingSurface:Detailed,
  F4_RTU1_NORTH_PERIMETER_SOUTH_WALL,
  Wall,
  SCREENING_INTERIOR,
  F4_RTU1_NORTH_PERIMETER,
  ,
  Adiabatic,
  ,
  NoSun,
  NoWind,
  autocalculate,
  4,
  0,
  20,
  8,
  0,
  20,
  4.6,
  23.25,
  20,
  4.6,
  23.25,
  20,
  8;

BuildingSurface:Detailed,
  F4_RTU1_NORTH_PERIMETER_EAST_WALL,
  Wall,
  SCREENING_INTERIOR,
  F4_RTU1_NORTH_PERIMETER,
  ,
  Adiabatic,
  ,
  NoSun,
  NoWind,
  autocalculate,
  4,
  23.25,
  20,
  8,
  23.25,
  20,
  4.6,
  23.25,
  25,
  4.6,
  23.25,
  25,
  8;

BuildingSurface:Detailed,
  F4_RTU1_NORTH_PERIMETER_NORTH_WALL,
  Wall,
  SCREENING_EXTERIOR_WALL,
  F4_RTU1_NORTH_PERIMETER,
  ,
  Outdoors,
  ,
  SunExposed,
  WindExposed,
  autocalculate,
  4,
  23.25,
  25,
  8,
  23.25,
  25,
  4.6,
  0,
  25,
  4.6,
  0,
  25,
  8;

BuildingSurface:Detailed,
  F4_RTU1_NORTH_PERIMETER_WEST_WALL,
  Wall,
  SCREENING_EXTERIOR_WALL,
  F4_RTU1_NORTH_PERIMETER,
  ,
  Outdoors,
  ,
  SunExposed,
  WindExposed,
  autocalculate,
  4,
  0,
  25,
  8,
  0,
  25,
  4.6,
  0,
  20,
  4.6,
  0,
  20,
  8;

BuildingSurface:Detailed,
  F4_RTU1_NORTH_PERIMETER_FLOOR,
  Floor,
  SCREENING_FLOOR,
  F4_RTU1_NORTH_PERIMETER,
  ,
  Adiabatic,
  ,
  NoSun,
  NoWind,
  autocalculate,
  4,
  0,
  20,
  4.6,
  0,
  25,
  4.6,
  23.25,
  25,
  4.6,
  23.25,
  20,
  4.6;

BuildingSurface:Detailed,
  F4_RTU1_NORTH_PERIMETER_CEILING,
  Roof,
  SCREENING_ROOF,
  F4_RTU1_NORTH_PERIMETER,
  ,
  Outdoors,
  ,
  SunExposed,
  WindExposed,
  autocalculate,
  4,
  0,
  25,
  8,
  0,
  20,
  8,
  23.25,
  20,
  8,
  23.25,
  25,
  8;

FenestrationSurface:Detailed,
  F4_RTU1_NORTH_PERIMETER_NORTH_WINDOW,
  Window,
  SCREENING_WINDOW,
  F4_RTU1_NORTH_PERIMETER_NORTH_WALL,
  ,
  autocalculate,
  ,
  1,
  4,
  20.925,
  25,
  7.15,
  20.925,
  25,
  5.45,
  2.325,
  25,
  5.45,
  2.325,
  25,
  7.15;

FenestrationSurface:Detailed,
  F4_RTU1_NORTH_PERIMETER_WEST_WINDOW,
  Window,
  SCREENING_WINDOW,
  F4_RTU1_NORTH_PERIMETER_WEST_WALL,
  ,
  autocalculate,
  ,
  1,
  4,
  0,
  24.5,
  7.15,
  0,
  24.5,
  5.45,
  0,
  20.5,
  5.45,
  0,
  20.5,
  7.15;

BuildingSurface:Detailed,
  F4_RTU2_SOUTH_PERIMETER_UFAD_PLENUM_SOUTH_WALL,
  Wall,
  SCREENING_EXTERIOR_WALL,
  F4_RTU2_SOUTH_PERIMETER_UFAD_PLENUM,
  ,
  Outdoors,
  ,
  SunExposed,
  WindExposed,
  autocalculate,
  4,
  23.25,
  0,
  4.6,
  23.25,
  0,
  4,
  46.5,
  0,
  4,
  46.5,
  0,
  4.6;

BuildingSurface:Detailed,
  F4_RTU2_SOUTH_PERIMETER_UFAD_PLENUM_EAST_WALL,
  Wall,
  SCREENING_INTERIOR,
  F4_RTU2_SOUTH_PERIMETER_UFAD_PLENUM,
  ,
  Adiabatic,
  ,
  NoSun,
  NoWind,
  autocalculate,
  4,
  46.5,
  0,
  4.6,
  46.5,
  0,
  4,
  46.5,
  5,
  4,
  46.5,
  5,
  4.6;

BuildingSurface:Detailed,
  F4_RTU2_SOUTH_PERIMETER_UFAD_PLENUM_NORTH_WALL,
  Wall,
  SCREENING_INTERIOR,
  F4_RTU2_SOUTH_PERIMETER_UFAD_PLENUM,
  ,
  Adiabatic,
  ,
  NoSun,
  NoWind,
  autocalculate,
  4,
  46.5,
  5,
  4.6,
  46.5,
  5,
  4,
  23.25,
  5,
  4,
  23.25,
  5,
  4.6;

BuildingSurface:Detailed,
  F4_RTU2_SOUTH_PERIMETER_UFAD_PLENUM_WEST_WALL,
  Wall,
  SCREENING_INTERIOR,
  F4_RTU2_SOUTH_PERIMETER_UFAD_PLENUM,
  ,
  Adiabatic,
  ,
  NoSun,
  NoWind,
  autocalculate,
  4,
  23.25,
  5,
  4.6,
  23.25,
  5,
  4,
  23.25,
  0,
  4,
  23.25,
  0,
  4.6;

BuildingSurface:Detailed,
  F4_RTU2_SOUTH_PERIMETER_UFAD_PLENUM_FLOOR,
  Floor,
  SCREENING_FLOOR,
  F4_RTU2_SOUTH_PERIMETER_UFAD_PLENUM,
  ,
  Adiabatic,
  ,
  NoSun,
  NoWind,
  autocalculate,
  4,
  23.25,
  0,
  4,
  23.25,
  5,
  4,
  46.5,
  5,
  4,
  46.5,
  0,
  4;

BuildingSurface:Detailed,
  F4_RTU2_SOUTH_PERIMETER_UFAD_PLENUM_CEILING,
  Ceiling,
  SCREENING_INTERIOR,
  F4_RTU2_SOUTH_PERIMETER_UFAD_PLENUM,
  ,
  Adiabatic,
  ,
  NoSun,
  NoWind,
  autocalculate,
  4,
  23.25,
  5,
  4.6,
  23.25,
  0,
  4.6,
  46.5,
  0,
  4.6,
  46.5,
  5,
  4.6;

BuildingSurface:Detailed,
  F4_RTU2_SOUTH_PERIMETER_SOUTH_WALL,
  Wall,
  SCREENING_EXTERIOR_WALL,
  F4_RTU2_SOUTH_PERIMETER,
  ,
  Outdoors,
  ,
  SunExposed,
  WindExposed,
  autocalculate,
  4,
  23.25,
  0,
  8,
  23.25,
  0,
  4.6,
  46.5,
  0,
  4.6,
  46.5,
  0,
  8;

BuildingSurface:Detailed,
  F4_RTU2_SOUTH_PERIMETER_EAST_WALL,
  Wall,
  SCREENING_INTERIOR,
  F4_RTU2_SOUTH_PERIMETER,
  ,
  Adiabatic,
  ,
  NoSun,
  NoWind,
  autocalculate,
  4,
  46.5,
  0,
  8,
  46.5,
  0,
  4.6,
  46.5,
  5,
  4.6,
  46.5,
  5,
  8;

BuildingSurface:Detailed,
  F4_RTU2_SOUTH_PERIMETER_NORTH_WALL,
  Wall,
  SCREENING_INTERIOR,
  F4_RTU2_SOUTH_PERIMETER,
  ,
  Adiabatic,
  ,
  NoSun,
  NoWind,
  autocalculate,
  4,
  46.5,
  5,
  8,
  46.5,
  5,
  4.6,
  23.25,
  5,
  4.6,
  23.25,
  5,
  8;

BuildingSurface:Detailed,
  F4_RTU2_SOUTH_PERIMETER_WEST_WALL,
  Wall,
  SCREENING_INTERIOR,
  F4_RTU2_SOUTH_PERIMETER,
  ,
  Adiabatic,
  ,
  NoSun,
  NoWind,
  autocalculate,
  4,
  23.25,
  5,
  8,
  23.25,
  5,
  4.6,
  23.25,
  0,
  4.6,
  23.25,
  0,
  8;

BuildingSurface:Detailed,
  F4_RTU2_SOUTH_PERIMETER_FLOOR,
  Floor,
  SCREENING_FLOOR,
  F4_RTU2_SOUTH_PERIMETER,
  ,
  Adiabatic,
  ,
  NoSun,
  NoWind,
  autocalculate,
  4,
  23.25,
  0,
  4.6,
  23.25,
  5,
  4.6,
  46.5,
  5,
  4.6,
  46.5,
  0,
  4.6;

BuildingSurface:Detailed,
  F4_RTU2_SOUTH_PERIMETER_CEILING,
  Roof,
  SCREENING_ROOF,
  F4_RTU2_SOUTH_PERIMETER,
  ,
  Outdoors,
  ,
  SunExposed,
  WindExposed,
  autocalculate,
  4,
  23.25,
  5,
  8,
  23.25,
  0,
  8,
  46.5,
  0,
  8,
  46.5,
  5,
  8;

FenestrationSurface:Detailed,
  F4_RTU2_SOUTH_PERIMETER_SOUTH_WINDOW,
  Window,
  SCREENING_WINDOW,
  F4_RTU2_SOUTH_PERIMETER_SOUTH_WALL,
  ,
  autocalculate,
  ,
  1,
  4,
  25.575,
  0,
  7.15,
  25.575,
  0,
  5.45,
  44.175,
  0,
  5.45,
  44.175,
  0,
  7.15;

BuildingSurface:Detailed,
  F4_RTU2_CORE_UFAD_PLENUM_SOUTH_WALL,
  Wall,
  SCREENING_INTERIOR,
  F4_RTU2_CORE_UFAD_PLENUM,
  ,
  Adiabatic,
  ,
  NoSun,
  NoWind,
  autocalculate,
  4,
  23.25,
  5,
  4.6,
  23.25,
  5,
  4,
  46.5,
  5,
  4,
  46.5,
  5,
  4.6;

BuildingSurface:Detailed,
  F4_RTU2_CORE_UFAD_PLENUM_EAST_WALL,
  Wall,
  SCREENING_INTERIOR,
  F4_RTU2_CORE_UFAD_PLENUM,
  ,
  Adiabatic,
  ,
  NoSun,
  NoWind,
  autocalculate,
  4,
  46.5,
  5,
  4.6,
  46.5,
  5,
  4,
  46.5,
  20,
  4,
  46.5,
  20,
  4.6;

BuildingSurface:Detailed,
  F4_RTU2_CORE_UFAD_PLENUM_NORTH_WALL,
  Wall,
  SCREENING_INTERIOR,
  F4_RTU2_CORE_UFAD_PLENUM,
  ,
  Adiabatic,
  ,
  NoSun,
  NoWind,
  autocalculate,
  4,
  46.5,
  20,
  4.6,
  46.5,
  20,
  4,
  23.25,
  20,
  4,
  23.25,
  20,
  4.6;

BuildingSurface:Detailed,
  F4_RTU2_CORE_UFAD_PLENUM_WEST_WALL,
  Wall,
  SCREENING_INTERIOR,
  F4_RTU2_CORE_UFAD_PLENUM,
  ,
  Adiabatic,
  ,
  NoSun,
  NoWind,
  autocalculate,
  4,
  23.25,
  20,
  4.6,
  23.25,
  20,
  4,
  23.25,
  5,
  4,
  23.25,
  5,
  4.6;

BuildingSurface:Detailed,
  F4_RTU2_CORE_UFAD_PLENUM_FLOOR,
  Floor,
  SCREENING_FLOOR,
  F4_RTU2_CORE_UFAD_PLENUM,
  ,
  Adiabatic,
  ,
  NoSun,
  NoWind,
  autocalculate,
  4,
  23.25,
  5,
  4,
  23.25,
  20,
  4,
  46.5,
  20,
  4,
  46.5,
  5,
  4;

BuildingSurface:Detailed,
  F4_RTU2_CORE_UFAD_PLENUM_CEILING,
  Ceiling,
  SCREENING_INTERIOR,
  F4_RTU2_CORE_UFAD_PLENUM,
  ,
  Adiabatic,
  ,
  NoSun,
  NoWind,
  autocalculate,
  4,
  23.25,
  20,
  4.6,
  23.25,
  5,
  4.6,
  46.5,
  5,
  4.6,
  46.5,
  20,
  4.6;

BuildingSurface:Detailed,
  F4_RTU2_CORE_SOUTH_WALL,
  Wall,
  SCREENING_INTERIOR,
  F4_RTU2_CORE,
  ,
  Adiabatic,
  ,
  NoSun,
  NoWind,
  autocalculate,
  4,
  23.25,
  5,
  8,
  23.25,
  5,
  4.6,
  46.5,
  5,
  4.6,
  46.5,
  5,
  8;

BuildingSurface:Detailed,
  F4_RTU2_CORE_EAST_WALL,
  Wall,
  SCREENING_INTERIOR,
  F4_RTU2_CORE,
  ,
  Adiabatic,
  ,
  NoSun,
  NoWind,
  autocalculate,
  4,
  46.5,
  5,
  8,
  46.5,
  5,
  4.6,
  46.5,
  20,
  4.6,
  46.5,
  20,
  8;

BuildingSurface:Detailed,
  F4_RTU2_CORE_NORTH_WALL,
  Wall,
  SCREENING_INTERIOR,
  F4_RTU2_CORE,
  ,
  Adiabatic,
  ,
  NoSun,
  NoWind,
  autocalculate,
  4,
  46.5,
  20,
  8,
  46.5,
  20,
  4.6,
  23.25,
  20,
  4.6,
  23.25,
  20,
  8;

BuildingSurface:Detailed,
  F4_RTU2_CORE_WEST_WALL,
  Wall,
  SCREENING_INTERIOR,
  F4_RTU2_CORE,
  ,
  Adiabatic,
  ,
  NoSun,
  NoWind,
  autocalculate,
  4,
  23.25,
  20,
  8,
  23.25,
  20,
  4.6,
  23.25,
  5,
  4.6,
  23.25,
  5,
  8;

BuildingSurface:Detailed,
  F4_RTU2_CORE_FLOOR,
  Floor,
  SCREENING_FLOOR,
  F4_RTU2_CORE,
  ,
  Adiabatic,
  ,
  NoSun,
  NoWind,
  autocalculate,
  4,
  23.25,
  5,
  4.6,
  23.25,
  20,
  4.6,
  46.5,
  20,
  4.6,
  46.5,
  5,
  4.6;

BuildingSurface:Detailed,
  F4_RTU2_CORE_CEILING,
  Roof,
  SCREENING_ROOF,
  F4_RTU2_CORE,
  ,
  Outdoors,
  ,
  SunExposed,
  WindExposed,
  autocalculate,
  4,
  23.25,
  20,
  8,
  23.25,
  5,
  8,
  46.5,
  5,
  8,
  46.5,
  20,
  8;

BuildingSurface:Detailed,
  F4_RTU2_NORTH_PERIMETER_UFAD_PLENUM_SOUTH_WALL,
  Wall,
  SCREENING_INTERIOR,
  F4_RTU2_NORTH_PERIMETER_UFAD_PLENUM,
  ,
  Adiabatic,
  ,
  NoSun,
  NoWind,
  autocalculate,
  4,
  23.25,
  20,
  4.6,
  23.25,
  20,
  4,
  46.5,
  20,
  4,
  46.5,
  20,
  4.6;

BuildingSurface:Detailed,
  F4_RTU2_NORTH_PERIMETER_UFAD_PLENUM_EAST_WALL,
  Wall,
  SCREENING_INTERIOR,
  F4_RTU2_NORTH_PERIMETER_UFAD_PLENUM,
  ,
  Adiabatic,
  ,
  NoSun,
  NoWind,
  autocalculate,
  4,
  46.5,
  20,
  4.6,
  46.5,
  20,
  4,
  46.5,
  25,
  4,
  46.5,
  25,
  4.6;

BuildingSurface:Detailed,
  F4_RTU2_NORTH_PERIMETER_UFAD_PLENUM_NORTH_WALL,
  Wall,
  SCREENING_EXTERIOR_WALL,
  F4_RTU2_NORTH_PERIMETER_UFAD_PLENUM,
  ,
  Outdoors,
  ,
  SunExposed,
  WindExposed,
  autocalculate,
  4,
  46.5,
  25,
  4.6,
  46.5,
  25,
  4,
  23.25,
  25,
  4,
  23.25,
  25,
  4.6;

BuildingSurface:Detailed,
  F4_RTU2_NORTH_PERIMETER_UFAD_PLENUM_WEST_WALL,
  Wall,
  SCREENING_INTERIOR,
  F4_RTU2_NORTH_PERIMETER_UFAD_PLENUM,
  ,
  Adiabatic,
  ,
  NoSun,
  NoWind,
  autocalculate,
  4,
  23.25,
  25,
  4.6,
  23.25,
  25,
  4,
  23.25,
  20,
  4,
  23.25,
  20,
  4.6;

BuildingSurface:Detailed,
  F4_RTU2_NORTH_PERIMETER_UFAD_PLENUM_FLOOR,
  Floor,
  SCREENING_FLOOR,
  F4_RTU2_NORTH_PERIMETER_UFAD_PLENUM,
  ,
  Adiabatic,
  ,
  NoSun,
  NoWind,
  autocalculate,
  4,
  23.25,
  20,
  4,
  23.25,
  25,
  4,
  46.5,
  25,
  4,
  46.5,
  20,
  4;

BuildingSurface:Detailed,
  F4_RTU2_NORTH_PERIMETER_UFAD_PLENUM_CEILING,
  Ceiling,
  SCREENING_INTERIOR,
  F4_RTU2_NORTH_PERIMETER_UFAD_PLENUM,
  ,
  Adiabatic,
  ,
  NoSun,
  NoWind,
  autocalculate,
  4,
  23.25,
  25,
  4.6,
  23.25,
  20,
  4.6,
  46.5,
  20,
  4.6,
  46.5,
  25,
  4.6;

BuildingSurface:Detailed,
  F4_RTU2_NORTH_PERIMETER_SOUTH_WALL,
  Wall,
  SCREENING_INTERIOR,
  F4_RTU2_NORTH_PERIMETER,
  ,
  Adiabatic,
  ,
  NoSun,
  NoWind,
  autocalculate,
  4,
  23.25,
  20,
  8,
  23.25,
  20,
  4.6,
  46.5,
  20,
  4.6,
  46.5,
  20,
  8;

BuildingSurface:Detailed,
  F4_RTU2_NORTH_PERIMETER_EAST_WALL,
  Wall,
  SCREENING_INTERIOR,
  F4_RTU2_NORTH_PERIMETER,
  ,
  Adiabatic,
  ,
  NoSun,
  NoWind,
  autocalculate,
  4,
  46.5,
  20,
  8,
  46.5,
  20,
  4.6,
  46.5,
  25,
  4.6,
  46.5,
  25,
  8;

BuildingSurface:Detailed,
  F4_RTU2_NORTH_PERIMETER_NORTH_WALL,
  Wall,
  SCREENING_EXTERIOR_WALL,
  F4_RTU2_NORTH_PERIMETER,
  ,
  Outdoors,
  ,
  SunExposed,
  WindExposed,
  autocalculate,
  4,
  46.5,
  25,
  8,
  46.5,
  25,
  4.6,
  23.25,
  25,
  4.6,
  23.25,
  25,
  8;

BuildingSurface:Detailed,
  F4_RTU2_NORTH_PERIMETER_WEST_WALL,
  Wall,
  SCREENING_INTERIOR,
  F4_RTU2_NORTH_PERIMETER,
  ,
  Adiabatic,
  ,
  NoSun,
  NoWind,
  autocalculate,
  4,
  23.25,
  25,
  8,
  23.25,
  25,
  4.6,
  23.25,
  20,
  4.6,
  23.25,
  20,
  8;

BuildingSurface:Detailed,
  F4_RTU2_NORTH_PERIMETER_FLOOR,
  Floor,
  SCREENING_FLOOR,
  F4_RTU2_NORTH_PERIMETER,
  ,
  Adiabatic,
  ,
  NoSun,
  NoWind,
  autocalculate,
  4,
  23.25,
  20,
  4.6,
  23.25,
  25,
  4.6,
  46.5,
  25,
  4.6,
  46.5,
  20,
  4.6;

BuildingSurface:Detailed,
  F4_RTU2_NORTH_PERIMETER_CEILING,
  Roof,
  SCREENING_ROOF,
  F4_RTU2_NORTH_PERIMETER,
  ,
  Outdoors,
  ,
  SunExposed,
  WindExposed,
  autocalculate,
  4,
  23.25,
  25,
  8,
  23.25,
  20,
  8,
  46.5,
  20,
  8,
  46.5,
  25,
  8;

FenestrationSurface:Detailed,
  F4_RTU2_NORTH_PERIMETER_NORTH_WINDOW,
  Window,
  SCREENING_WINDOW,
  F4_RTU2_NORTH_PERIMETER_NORTH_WALL,
  ,
  autocalculate,
  ,
  1,
  4,
  44.175,
  25,
  7.15,
  44.175,
  25,
  5.45,
  25.575,
  25,
  5.45,
  25.575,
  25,
  7.15;

BuildingSurface:Detailed,
  F4_RTU3_SOUTH_PERIMETER_UFAD_PLENUM_SOUTH_WALL,
  Wall,
  SCREENING_EXTERIOR_WALL,
  F4_RTU3_SOUTH_PERIMETER_UFAD_PLENUM,
  ,
  Outdoors,
  ,
  SunExposed,
  WindExposed,
  autocalculate,
  4,
  46.5,
  0,
  4.6,
  46.5,
  0,
  4,
  69.75,
  0,
  4,
  69.75,
  0,
  4.6;

BuildingSurface:Detailed,
  F4_RTU3_SOUTH_PERIMETER_UFAD_PLENUM_EAST_WALL,
  Wall,
  SCREENING_INTERIOR,
  F4_RTU3_SOUTH_PERIMETER_UFAD_PLENUM,
  ,
  Adiabatic,
  ,
  NoSun,
  NoWind,
  autocalculate,
  4,
  69.75,
  0,
  4.6,
  69.75,
  0,
  4,
  69.75,
  5,
  4,
  69.75,
  5,
  4.6;

BuildingSurface:Detailed,
  F4_RTU3_SOUTH_PERIMETER_UFAD_PLENUM_NORTH_WALL,
  Wall,
  SCREENING_INTERIOR,
  F4_RTU3_SOUTH_PERIMETER_UFAD_PLENUM,
  ,
  Adiabatic,
  ,
  NoSun,
  NoWind,
  autocalculate,
  4,
  69.75,
  5,
  4.6,
  69.75,
  5,
  4,
  46.5,
  5,
  4,
  46.5,
  5,
  4.6;

BuildingSurface:Detailed,
  F4_RTU3_SOUTH_PERIMETER_UFAD_PLENUM_WEST_WALL,
  Wall,
  SCREENING_INTERIOR,
  F4_RTU3_SOUTH_PERIMETER_UFAD_PLENUM,
  ,
  Adiabatic,
  ,
  NoSun,
  NoWind,
  autocalculate,
  4,
  46.5,
  5,
  4.6,
  46.5,
  5,
  4,
  46.5,
  0,
  4,
  46.5,
  0,
  4.6;

BuildingSurface:Detailed,
  F4_RTU3_SOUTH_PERIMETER_UFAD_PLENUM_FLOOR,
  Floor,
  SCREENING_FLOOR,
  F4_RTU3_SOUTH_PERIMETER_UFAD_PLENUM,
  ,
  Adiabatic,
  ,
  NoSun,
  NoWind,
  autocalculate,
  4,
  46.5,
  0,
  4,
  46.5,
  5,
  4,
  69.75,
  5,
  4,
  69.75,
  0,
  4;

BuildingSurface:Detailed,
  F4_RTU3_SOUTH_PERIMETER_UFAD_PLENUM_CEILING,
  Ceiling,
  SCREENING_INTERIOR,
  F4_RTU3_SOUTH_PERIMETER_UFAD_PLENUM,
  ,
  Adiabatic,
  ,
  NoSun,
  NoWind,
  autocalculate,
  4,
  46.5,
  5,
  4.6,
  46.5,
  0,
  4.6,
  69.75,
  0,
  4.6,
  69.75,
  5,
  4.6;

BuildingSurface:Detailed,
  F4_RTU3_SOUTH_PERIMETER_SOUTH_WALL,
  Wall,
  SCREENING_EXTERIOR_WALL,
  F4_RTU3_SOUTH_PERIMETER,
  ,
  Outdoors,
  ,
  SunExposed,
  WindExposed,
  autocalculate,
  4,
  46.5,
  0,
  8,
  46.5,
  0,
  4.6,
  69.75,
  0,
  4.6,
  69.75,
  0,
  8;

BuildingSurface:Detailed,
  F4_RTU3_SOUTH_PERIMETER_EAST_WALL,
  Wall,
  SCREENING_INTERIOR,
  F4_RTU3_SOUTH_PERIMETER,
  ,
  Adiabatic,
  ,
  NoSun,
  NoWind,
  autocalculate,
  4,
  69.75,
  0,
  8,
  69.75,
  0,
  4.6,
  69.75,
  5,
  4.6,
  69.75,
  5,
  8;

BuildingSurface:Detailed,
  F4_RTU3_SOUTH_PERIMETER_NORTH_WALL,
  Wall,
  SCREENING_INTERIOR,
  F4_RTU3_SOUTH_PERIMETER,
  ,
  Adiabatic,
  ,
  NoSun,
  NoWind,
  autocalculate,
  4,
  69.75,
  5,
  8,
  69.75,
  5,
  4.6,
  46.5,
  5,
  4.6,
  46.5,
  5,
  8;

BuildingSurface:Detailed,
  F4_RTU3_SOUTH_PERIMETER_WEST_WALL,
  Wall,
  SCREENING_INTERIOR,
  F4_RTU3_SOUTH_PERIMETER,
  ,
  Adiabatic,
  ,
  NoSun,
  NoWind,
  autocalculate,
  4,
  46.5,
  5,
  8,
  46.5,
  5,
  4.6,
  46.5,
  0,
  4.6,
  46.5,
  0,
  8;

BuildingSurface:Detailed,
  F4_RTU3_SOUTH_PERIMETER_FLOOR,
  Floor,
  SCREENING_FLOOR,
  F4_RTU3_SOUTH_PERIMETER,
  ,
  Adiabatic,
  ,
  NoSun,
  NoWind,
  autocalculate,
  4,
  46.5,
  0,
  4.6,
  46.5,
  5,
  4.6,
  69.75,
  5,
  4.6,
  69.75,
  0,
  4.6;

BuildingSurface:Detailed,
  F4_RTU3_SOUTH_PERIMETER_CEILING,
  Roof,
  SCREENING_ROOF,
  F4_RTU3_SOUTH_PERIMETER,
  ,
  Outdoors,
  ,
  SunExposed,
  WindExposed,
  autocalculate,
  4,
  46.5,
  5,
  8,
  46.5,
  0,
  8,
  69.75,
  0,
  8,
  69.75,
  5,
  8;

FenestrationSurface:Detailed,
  F4_RTU3_SOUTH_PERIMETER_SOUTH_WINDOW,
  Window,
  SCREENING_WINDOW,
  F4_RTU3_SOUTH_PERIMETER_SOUTH_WALL,
  ,
  autocalculate,
  ,
  1,
  4,
  48.825,
  0,
  7.15,
  48.825,
  0,
  5.45,
  67.425,
  0,
  5.45,
  67.425,
  0,
  7.15;

BuildingSurface:Detailed,
  F4_RTU3_CORE_UFAD_PLENUM_SOUTH_WALL,
  Wall,
  SCREENING_INTERIOR,
  F4_RTU3_CORE_UFAD_PLENUM,
  ,
  Adiabatic,
  ,
  NoSun,
  NoWind,
  autocalculate,
  4,
  46.5,
  5,
  4.6,
  46.5,
  5,
  4,
  69.75,
  5,
  4,
  69.75,
  5,
  4.6;

BuildingSurface:Detailed,
  F4_RTU3_CORE_UFAD_PLENUM_EAST_WALL,
  Wall,
  SCREENING_INTERIOR,
  F4_RTU3_CORE_UFAD_PLENUM,
  ,
  Adiabatic,
  ,
  NoSun,
  NoWind,
  autocalculate,
  4,
  69.75,
  5,
  4.6,
  69.75,
  5,
  4,
  69.75,
  20,
  4,
  69.75,
  20,
  4.6;

BuildingSurface:Detailed,
  F4_RTU3_CORE_UFAD_PLENUM_NORTH_WALL,
  Wall,
  SCREENING_INTERIOR,
  F4_RTU3_CORE_UFAD_PLENUM,
  ,
  Adiabatic,
  ,
  NoSun,
  NoWind,
  autocalculate,
  4,
  69.75,
  20,
  4.6,
  69.75,
  20,
  4,
  46.5,
  20,
  4,
  46.5,
  20,
  4.6;

BuildingSurface:Detailed,
  F4_RTU3_CORE_UFAD_PLENUM_WEST_WALL,
  Wall,
  SCREENING_INTERIOR,
  F4_RTU3_CORE_UFAD_PLENUM,
  ,
  Adiabatic,
  ,
  NoSun,
  NoWind,
  autocalculate,
  4,
  46.5,
  20,
  4.6,
  46.5,
  20,
  4,
  46.5,
  5,
  4,
  46.5,
  5,
  4.6;

BuildingSurface:Detailed,
  F4_RTU3_CORE_UFAD_PLENUM_FLOOR,
  Floor,
  SCREENING_FLOOR,
  F4_RTU3_CORE_UFAD_PLENUM,
  ,
  Adiabatic,
  ,
  NoSun,
  NoWind,
  autocalculate,
  4,
  46.5,
  5,
  4,
  46.5,
  20,
  4,
  69.75,
  20,
  4,
  69.75,
  5,
  4;

BuildingSurface:Detailed,
  F4_RTU3_CORE_UFAD_PLENUM_CEILING,
  Ceiling,
  SCREENING_INTERIOR,
  F4_RTU3_CORE_UFAD_PLENUM,
  ,
  Adiabatic,
  ,
  NoSun,
  NoWind,
  autocalculate,
  4,
  46.5,
  20,
  4.6,
  46.5,
  5,
  4.6,
  69.75,
  5,
  4.6,
  69.75,
  20,
  4.6;

BuildingSurface:Detailed,
  F4_RTU3_CORE_SOUTH_WALL,
  Wall,
  SCREENING_INTERIOR,
  F4_RTU3_CORE,
  ,
  Adiabatic,
  ,
  NoSun,
  NoWind,
  autocalculate,
  4,
  46.5,
  5,
  8,
  46.5,
  5,
  4.6,
  69.75,
  5,
  4.6,
  69.75,
  5,
  8;

BuildingSurface:Detailed,
  F4_RTU3_CORE_EAST_WALL,
  Wall,
  SCREENING_INTERIOR,
  F4_RTU3_CORE,
  ,
  Adiabatic,
  ,
  NoSun,
  NoWind,
  autocalculate,
  4,
  69.75,
  5,
  8,
  69.75,
  5,
  4.6,
  69.75,
  20,
  4.6,
  69.75,
  20,
  8;

BuildingSurface:Detailed,
  F4_RTU3_CORE_NORTH_WALL,
  Wall,
  SCREENING_INTERIOR,
  F4_RTU3_CORE,
  ,
  Adiabatic,
  ,
  NoSun,
  NoWind,
  autocalculate,
  4,
  69.75,
  20,
  8,
  69.75,
  20,
  4.6,
  46.5,
  20,
  4.6,
  46.5,
  20,
  8;

BuildingSurface:Detailed,
  F4_RTU3_CORE_WEST_WALL,
  Wall,
  SCREENING_INTERIOR,
  F4_RTU3_CORE,
  ,
  Adiabatic,
  ,
  NoSun,
  NoWind,
  autocalculate,
  4,
  46.5,
  20,
  8,
  46.5,
  20,
  4.6,
  46.5,
  5,
  4.6,
  46.5,
  5,
  8;

BuildingSurface:Detailed,
  F4_RTU3_CORE_FLOOR,
  Floor,
  SCREENING_FLOOR,
  F4_RTU3_CORE,
  ,
  Adiabatic,
  ,
  NoSun,
  NoWind,
  autocalculate,
  4,
  46.5,
  5,
  4.6,
  46.5,
  20,
  4.6,
  69.75,
  20,
  4.6,
  69.75,
  5,
  4.6;

BuildingSurface:Detailed,
  F4_RTU3_CORE_CEILING,
  Roof,
  SCREENING_ROOF,
  F4_RTU3_CORE,
  ,
  Outdoors,
  ,
  SunExposed,
  WindExposed,
  autocalculate,
  4,
  46.5,
  20,
  8,
  46.5,
  5,
  8,
  69.75,
  5,
  8,
  69.75,
  20,
  8;

BuildingSurface:Detailed,
  F4_RTU3_NORTH_PERIMETER_UFAD_PLENUM_SOUTH_WALL,
  Wall,
  SCREENING_INTERIOR,
  F4_RTU3_NORTH_PERIMETER_UFAD_PLENUM,
  ,
  Adiabatic,
  ,
  NoSun,
  NoWind,
  autocalculate,
  4,
  46.5,
  20,
  4.6,
  46.5,
  20,
  4,
  69.75,
  20,
  4,
  69.75,
  20,
  4.6;

BuildingSurface:Detailed,
  F4_RTU3_NORTH_PERIMETER_UFAD_PLENUM_EAST_WALL,
  Wall,
  SCREENING_INTERIOR,
  F4_RTU3_NORTH_PERIMETER_UFAD_PLENUM,
  ,
  Adiabatic,
  ,
  NoSun,
  NoWind,
  autocalculate,
  4,
  69.75,
  20,
  4.6,
  69.75,
  20,
  4,
  69.75,
  25,
  4,
  69.75,
  25,
  4.6;

BuildingSurface:Detailed,
  F4_RTU3_NORTH_PERIMETER_UFAD_PLENUM_NORTH_WALL,
  Wall,
  SCREENING_EXTERIOR_WALL,
  F4_RTU3_NORTH_PERIMETER_UFAD_PLENUM,
  ,
  Outdoors,
  ,
  SunExposed,
  WindExposed,
  autocalculate,
  4,
  69.75,
  25,
  4.6,
  69.75,
  25,
  4,
  46.5,
  25,
  4,
  46.5,
  25,
  4.6;

BuildingSurface:Detailed,
  F4_RTU3_NORTH_PERIMETER_UFAD_PLENUM_WEST_WALL,
  Wall,
  SCREENING_INTERIOR,
  F4_RTU3_NORTH_PERIMETER_UFAD_PLENUM,
  ,
  Adiabatic,
  ,
  NoSun,
  NoWind,
  autocalculate,
  4,
  46.5,
  25,
  4.6,
  46.5,
  25,
  4,
  46.5,
  20,
  4,
  46.5,
  20,
  4.6;

BuildingSurface:Detailed,
  F4_RTU3_NORTH_PERIMETER_UFAD_PLENUM_FLOOR,
  Floor,
  SCREENING_FLOOR,
  F4_RTU3_NORTH_PERIMETER_UFAD_PLENUM,
  ,
  Adiabatic,
  ,
  NoSun,
  NoWind,
  autocalculate,
  4,
  46.5,
  20,
  4,
  46.5,
  25,
  4,
  69.75,
  25,
  4,
  69.75,
  20,
  4;

BuildingSurface:Detailed,
  F4_RTU3_NORTH_PERIMETER_UFAD_PLENUM_CEILING,
  Ceiling,
  SCREENING_INTERIOR,
  F4_RTU3_NORTH_PERIMETER_UFAD_PLENUM,
  ,
  Adiabatic,
  ,
  NoSun,
  NoWind,
  autocalculate,
  4,
  46.5,
  25,
  4.6,
  46.5,
  20,
  4.6,
  69.75,
  20,
  4.6,
  69.75,
  25,
  4.6;

BuildingSurface:Detailed,
  F4_RTU3_NORTH_PERIMETER_SOUTH_WALL,
  Wall,
  SCREENING_INTERIOR,
  F4_RTU3_NORTH_PERIMETER,
  ,
  Adiabatic,
  ,
  NoSun,
  NoWind,
  autocalculate,
  4,
  46.5,
  20,
  8,
  46.5,
  20,
  4.6,
  69.75,
  20,
  4.6,
  69.75,
  20,
  8;

BuildingSurface:Detailed,
  F4_RTU3_NORTH_PERIMETER_EAST_WALL,
  Wall,
  SCREENING_INTERIOR,
  F4_RTU3_NORTH_PERIMETER,
  ,
  Adiabatic,
  ,
  NoSun,
  NoWind,
  autocalculate,
  4,
  69.75,
  20,
  8,
  69.75,
  20,
  4.6,
  69.75,
  25,
  4.6,
  69.75,
  25,
  8;

BuildingSurface:Detailed,
  F4_RTU3_NORTH_PERIMETER_NORTH_WALL,
  Wall,
  SCREENING_EXTERIOR_WALL,
  F4_RTU3_NORTH_PERIMETER,
  ,
  Outdoors,
  ,
  SunExposed,
  WindExposed,
  autocalculate,
  4,
  69.75,
  25,
  8,
  69.75,
  25,
  4.6,
  46.5,
  25,
  4.6,
  46.5,
  25,
  8;

BuildingSurface:Detailed,
  F4_RTU3_NORTH_PERIMETER_WEST_WALL,
  Wall,
  SCREENING_INTERIOR,
  F4_RTU3_NORTH_PERIMETER,
  ,
  Adiabatic,
  ,
  NoSun,
  NoWind,
  autocalculate,
  4,
  46.5,
  25,
  8,
  46.5,
  25,
  4.6,
  46.5,
  20,
  4.6,
  46.5,
  20,
  8;

BuildingSurface:Detailed,
  F4_RTU3_NORTH_PERIMETER_FLOOR,
  Floor,
  SCREENING_FLOOR,
  F4_RTU3_NORTH_PERIMETER,
  ,
  Adiabatic,
  ,
  NoSun,
  NoWind,
  autocalculate,
  4,
  46.5,
  20,
  4.6,
  46.5,
  25,
  4.6,
  69.75,
  25,
  4.6,
  69.75,
  20,
  4.6;

BuildingSurface:Detailed,
  F4_RTU3_NORTH_PERIMETER_CEILING,
  Roof,
  SCREENING_ROOF,
  F4_RTU3_NORTH_PERIMETER,
  ,
  Outdoors,
  ,
  SunExposed,
  WindExposed,
  autocalculate,
  4,
  46.5,
  25,
  8,
  46.5,
  20,
  8,
  69.75,
  20,
  8,
  69.75,
  25,
  8;

FenestrationSurface:Detailed,
  F4_RTU3_NORTH_PERIMETER_NORTH_WINDOW,
  Window,
  SCREENING_WINDOW,
  F4_RTU3_NORTH_PERIMETER_NORTH_WALL,
  ,
  autocalculate,
  ,
  1,
  4,
  67.425,
  25,
  7.15,
  67.425,
  25,
  5.45,
  48.825,
  25,
  5.45,
  48.825,
  25,
  7.15;

BuildingSurface:Detailed,
  F4_RTU4_SOUTH_PERIMETER_UFAD_PLENUM_SOUTH_WALL,
  Wall,
  SCREENING_EXTERIOR_WALL,
  F4_RTU4_SOUTH_PERIMETER_UFAD_PLENUM,
  ,
  Outdoors,
  ,
  SunExposed,
  WindExposed,
  autocalculate,
  4,
  69.75,
  0,
  4.6,
  69.75,
  0,
  4,
  93,
  0,
  4,
  93,
  0,
  4.6;

BuildingSurface:Detailed,
  F4_RTU4_SOUTH_PERIMETER_UFAD_PLENUM_EAST_WALL,
  Wall,
  SCREENING_EXTERIOR_WALL,
  F4_RTU4_SOUTH_PERIMETER_UFAD_PLENUM,
  ,
  Outdoors,
  ,
  SunExposed,
  WindExposed,
  autocalculate,
  4,
  93,
  0,
  4.6,
  93,
  0,
  4,
  93,
  5,
  4,
  93,
  5,
  4.6;

BuildingSurface:Detailed,
  F4_RTU4_SOUTH_PERIMETER_UFAD_PLENUM_NORTH_WALL,
  Wall,
  SCREENING_INTERIOR,
  F4_RTU4_SOUTH_PERIMETER_UFAD_PLENUM,
  ,
  Adiabatic,
  ,
  NoSun,
  NoWind,
  autocalculate,
  4,
  93,
  5,
  4.6,
  93,
  5,
  4,
  69.75,
  5,
  4,
  69.75,
  5,
  4.6;

BuildingSurface:Detailed,
  F4_RTU4_SOUTH_PERIMETER_UFAD_PLENUM_WEST_WALL,
  Wall,
  SCREENING_INTERIOR,
  F4_RTU4_SOUTH_PERIMETER_UFAD_PLENUM,
  ,
  Adiabatic,
  ,
  NoSun,
  NoWind,
  autocalculate,
  4,
  69.75,
  5,
  4.6,
  69.75,
  5,
  4,
  69.75,
  0,
  4,
  69.75,
  0,
  4.6;

BuildingSurface:Detailed,
  F4_RTU4_SOUTH_PERIMETER_UFAD_PLENUM_FLOOR,
  Floor,
  SCREENING_FLOOR,
  F4_RTU4_SOUTH_PERIMETER_UFAD_PLENUM,
  ,
  Adiabatic,
  ,
  NoSun,
  NoWind,
  autocalculate,
  4,
  69.75,
  0,
  4,
  69.75,
  5,
  4,
  93,
  5,
  4,
  93,
  0,
  4;

BuildingSurface:Detailed,
  F4_RTU4_SOUTH_PERIMETER_UFAD_PLENUM_CEILING,
  Ceiling,
  SCREENING_INTERIOR,
  F4_RTU4_SOUTH_PERIMETER_UFAD_PLENUM,
  ,
  Adiabatic,
  ,
  NoSun,
  NoWind,
  autocalculate,
  4,
  69.75,
  5,
  4.6,
  69.75,
  0,
  4.6,
  93,
  0,
  4.6,
  93,
  5,
  4.6;

BuildingSurface:Detailed,
  F4_RTU4_SOUTH_PERIMETER_SOUTH_WALL,
  Wall,
  SCREENING_EXTERIOR_WALL,
  F4_RTU4_SOUTH_PERIMETER,
  ,
  Outdoors,
  ,
  SunExposed,
  WindExposed,
  autocalculate,
  4,
  69.75,
  0,
  8,
  69.75,
  0,
  4.6,
  93,
  0,
  4.6,
  93,
  0,
  8;

BuildingSurface:Detailed,
  F4_RTU4_SOUTH_PERIMETER_EAST_WALL,
  Wall,
  SCREENING_EXTERIOR_WALL,
  F4_RTU4_SOUTH_PERIMETER,
  ,
  Outdoors,
  ,
  SunExposed,
  WindExposed,
  autocalculate,
  4,
  93,
  0,
  8,
  93,
  0,
  4.6,
  93,
  5,
  4.6,
  93,
  5,
  8;

BuildingSurface:Detailed,
  F4_RTU4_SOUTH_PERIMETER_NORTH_WALL,
  Wall,
  SCREENING_INTERIOR,
  F4_RTU4_SOUTH_PERIMETER,
  ,
  Adiabatic,
  ,
  NoSun,
  NoWind,
  autocalculate,
  4,
  93,
  5,
  8,
  93,
  5,
  4.6,
  69.75,
  5,
  4.6,
  69.75,
  5,
  8;

BuildingSurface:Detailed,
  F4_RTU4_SOUTH_PERIMETER_WEST_WALL,
  Wall,
  SCREENING_INTERIOR,
  F4_RTU4_SOUTH_PERIMETER,
  ,
  Adiabatic,
  ,
  NoSun,
  NoWind,
  autocalculate,
  4,
  69.75,
  5,
  8,
  69.75,
  5,
  4.6,
  69.75,
  0,
  4.6,
  69.75,
  0,
  8;

BuildingSurface:Detailed,
  F4_RTU4_SOUTH_PERIMETER_FLOOR,
  Floor,
  SCREENING_FLOOR,
  F4_RTU4_SOUTH_PERIMETER,
  ,
  Adiabatic,
  ,
  NoSun,
  NoWind,
  autocalculate,
  4,
  69.75,
  0,
  4.6,
  69.75,
  5,
  4.6,
  93,
  5,
  4.6,
  93,
  0,
  4.6;

BuildingSurface:Detailed,
  F4_RTU4_SOUTH_PERIMETER_CEILING,
  Roof,
  SCREENING_ROOF,
  F4_RTU4_SOUTH_PERIMETER,
  ,
  Outdoors,
  ,
  SunExposed,
  WindExposed,
  autocalculate,
  4,
  69.75,
  5,
  8,
  69.75,
  0,
  8,
  93,
  0,
  8,
  93,
  5,
  8;

FenestrationSurface:Detailed,
  F4_RTU4_SOUTH_PERIMETER_SOUTH_WINDOW,
  Window,
  SCREENING_WINDOW,
  F4_RTU4_SOUTH_PERIMETER_SOUTH_WALL,
  ,
  autocalculate,
  ,
  1,
  4,
  72.075,
  0,
  7.15,
  72.075,
  0,
  5.45,
  90.675,
  0,
  5.45,
  90.675,
  0,
  7.15;

FenestrationSurface:Detailed,
  F4_RTU4_SOUTH_PERIMETER_EAST_WINDOW,
  Window,
  SCREENING_WINDOW,
  F4_RTU4_SOUTH_PERIMETER_EAST_WALL,
  ,
  autocalculate,
  ,
  1,
  4,
  93,
  0.5,
  7.15,
  93,
  0.5,
  5.45,
  93,
  4.5,
  5.45,
  93,
  4.5,
  7.15;

BuildingSurface:Detailed,
  F4_RTU4_CORE_UFAD_PLENUM_SOUTH_WALL,
  Wall,
  SCREENING_INTERIOR,
  F4_RTU4_CORE_UFAD_PLENUM,
  ,
  Adiabatic,
  ,
  NoSun,
  NoWind,
  autocalculate,
  4,
  69.75,
  5,
  4.6,
  69.75,
  5,
  4,
  93,
  5,
  4,
  93,
  5,
  4.6;

BuildingSurface:Detailed,
  F4_RTU4_CORE_UFAD_PLENUM_EAST_WALL,
  Wall,
  SCREENING_EXTERIOR_WALL,
  F4_RTU4_CORE_UFAD_PLENUM,
  ,
  Outdoors,
  ,
  SunExposed,
  WindExposed,
  autocalculate,
  4,
  93,
  5,
  4.6,
  93,
  5,
  4,
  93,
  20,
  4,
  93,
  20,
  4.6;

BuildingSurface:Detailed,
  F4_RTU4_CORE_UFAD_PLENUM_NORTH_WALL,
  Wall,
  SCREENING_INTERIOR,
  F4_RTU4_CORE_UFAD_PLENUM,
  ,
  Adiabatic,
  ,
  NoSun,
  NoWind,
  autocalculate,
  4,
  93,
  20,
  4.6,
  93,
  20,
  4,
  69.75,
  20,
  4,
  69.75,
  20,
  4.6;

BuildingSurface:Detailed,
  F4_RTU4_CORE_UFAD_PLENUM_WEST_WALL,
  Wall,
  SCREENING_INTERIOR,
  F4_RTU4_CORE_UFAD_PLENUM,
  ,
  Adiabatic,
  ,
  NoSun,
  NoWind,
  autocalculate,
  4,
  69.75,
  20,
  4.6,
  69.75,
  20,
  4,
  69.75,
  5,
  4,
  69.75,
  5,
  4.6;

BuildingSurface:Detailed,
  F4_RTU4_CORE_UFAD_PLENUM_FLOOR,
  Floor,
  SCREENING_FLOOR,
  F4_RTU4_CORE_UFAD_PLENUM,
  ,
  Adiabatic,
  ,
  NoSun,
  NoWind,
  autocalculate,
  4,
  69.75,
  5,
  4,
  69.75,
  20,
  4,
  93,
  20,
  4,
  93,
  5,
  4;

BuildingSurface:Detailed,
  F4_RTU4_CORE_UFAD_PLENUM_CEILING,
  Ceiling,
  SCREENING_INTERIOR,
  F4_RTU4_CORE_UFAD_PLENUM,
  ,
  Adiabatic,
  ,
  NoSun,
  NoWind,
  autocalculate,
  4,
  69.75,
  20,
  4.6,
  69.75,
  5,
  4.6,
  93,
  5,
  4.6,
  93,
  20,
  4.6;

BuildingSurface:Detailed,
  F4_RTU4_CORE_SOUTH_WALL,
  Wall,
  SCREENING_INTERIOR,
  F4_RTU4_CORE,
  ,
  Adiabatic,
  ,
  NoSun,
  NoWind,
  autocalculate,
  4,
  69.75,
  5,
  8,
  69.75,
  5,
  4.6,
  93,
  5,
  4.6,
  93,
  5,
  8;

BuildingSurface:Detailed,
  F4_RTU4_CORE_EAST_WALL,
  Wall,
  SCREENING_EXTERIOR_WALL,
  F4_RTU4_CORE,
  ,
  Outdoors,
  ,
  SunExposed,
  WindExposed,
  autocalculate,
  4,
  93,
  5,
  8,
  93,
  5,
  4.6,
  93,
  20,
  4.6,
  93,
  20,
  8;

BuildingSurface:Detailed,
  F4_RTU4_CORE_NORTH_WALL,
  Wall,
  SCREENING_INTERIOR,
  F4_RTU4_CORE,
  ,
  Adiabatic,
  ,
  NoSun,
  NoWind,
  autocalculate,
  4,
  93,
  20,
  8,
  93,
  20,
  4.6,
  69.75,
  20,
  4.6,
  69.75,
  20,
  8;

BuildingSurface:Detailed,
  F4_RTU4_CORE_WEST_WALL,
  Wall,
  SCREENING_INTERIOR,
  F4_RTU4_CORE,
  ,
  Adiabatic,
  ,
  NoSun,
  NoWind,
  autocalculate,
  4,
  69.75,
  20,
  8,
  69.75,
  20,
  4.6,
  69.75,
  5,
  4.6,
  69.75,
  5,
  8;

BuildingSurface:Detailed,
  F4_RTU4_CORE_FLOOR,
  Floor,
  SCREENING_FLOOR,
  F4_RTU4_CORE,
  ,
  Adiabatic,
  ,
  NoSun,
  NoWind,
  autocalculate,
  4,
  69.75,
  5,
  4.6,
  69.75,
  20,
  4.6,
  93,
  20,
  4.6,
  93,
  5,
  4.6;

BuildingSurface:Detailed,
  F4_RTU4_CORE_CEILING,
  Roof,
  SCREENING_ROOF,
  F4_RTU4_CORE,
  ,
  Outdoors,
  ,
  SunExposed,
  WindExposed,
  autocalculate,
  4,
  69.75,
  20,
  8,
  69.75,
  5,
  8,
  93,
  5,
  8,
  93,
  20,
  8;

FenestrationSurface:Detailed,
  F4_RTU4_CORE_EAST_WINDOW,
  Window,
  SCREENING_WINDOW,
  F4_RTU4_CORE_EAST_WALL,
  ,
  autocalculate,
  ,
  1,
  4,
  93,
  6.5,
  7.15,
  93,
  6.5,
  5.45,
  93,
  18.5,
  5.45,
  93,
  18.5,
  7.15;

BuildingSurface:Detailed,
  F4_RTU4_NORTH_PERIMETER_UFAD_PLENUM_SOUTH_WALL,
  Wall,
  SCREENING_INTERIOR,
  F4_RTU4_NORTH_PERIMETER_UFAD_PLENUM,
  ,
  Adiabatic,
  ,
  NoSun,
  NoWind,
  autocalculate,
  4,
  69.75,
  20,
  4.6,
  69.75,
  20,
  4,
  93,
  20,
  4,
  93,
  20,
  4.6;

BuildingSurface:Detailed,
  F4_RTU4_NORTH_PERIMETER_UFAD_PLENUM_EAST_WALL,
  Wall,
  SCREENING_EXTERIOR_WALL,
  F4_RTU4_NORTH_PERIMETER_UFAD_PLENUM,
  ,
  Outdoors,
  ,
  SunExposed,
  WindExposed,
  autocalculate,
  4,
  93,
  20,
  4.6,
  93,
  20,
  4,
  93,
  25,
  4,
  93,
  25,
  4.6;

BuildingSurface:Detailed,
  F4_RTU4_NORTH_PERIMETER_UFAD_PLENUM_NORTH_WALL,
  Wall,
  SCREENING_EXTERIOR_WALL,
  F4_RTU4_NORTH_PERIMETER_UFAD_PLENUM,
  ,
  Outdoors,
  ,
  SunExposed,
  WindExposed,
  autocalculate,
  4,
  93,
  25,
  4.6,
  93,
  25,
  4,
  69.75,
  25,
  4,
  69.75,
  25,
  4.6;

BuildingSurface:Detailed,
  F4_RTU4_NORTH_PERIMETER_UFAD_PLENUM_WEST_WALL,
  Wall,
  SCREENING_INTERIOR,
  F4_RTU4_NORTH_PERIMETER_UFAD_PLENUM,
  ,
  Adiabatic,
  ,
  NoSun,
  NoWind,
  autocalculate,
  4,
  69.75,
  25,
  4.6,
  69.75,
  25,
  4,
  69.75,
  20,
  4,
  69.75,
  20,
  4.6;

BuildingSurface:Detailed,
  F4_RTU4_NORTH_PERIMETER_UFAD_PLENUM_FLOOR,
  Floor,
  SCREENING_FLOOR,
  F4_RTU4_NORTH_PERIMETER_UFAD_PLENUM,
  ,
  Adiabatic,
  ,
  NoSun,
  NoWind,
  autocalculate,
  4,
  69.75,
  20,
  4,
  69.75,
  25,
  4,
  93,
  25,
  4,
  93,
  20,
  4;

BuildingSurface:Detailed,
  F4_RTU4_NORTH_PERIMETER_UFAD_PLENUM_CEILING,
  Ceiling,
  SCREENING_INTERIOR,
  F4_RTU4_NORTH_PERIMETER_UFAD_PLENUM,
  ,
  Adiabatic,
  ,
  NoSun,
  NoWind,
  autocalculate,
  4,
  69.75,
  25,
  4.6,
  69.75,
  20,
  4.6,
  93,
  20,
  4.6,
  93,
  25,
  4.6;

BuildingSurface:Detailed,
  F4_RTU4_NORTH_PERIMETER_SOUTH_WALL,
  Wall,
  SCREENING_INTERIOR,
  F4_RTU4_NORTH_PERIMETER,
  ,
  Adiabatic,
  ,
  NoSun,
  NoWind,
  autocalculate,
  4,
  69.75,
  20,
  8,
  69.75,
  20,
  4.6,
  93,
  20,
  4.6,
  93,
  20,
  8;

BuildingSurface:Detailed,
  F4_RTU4_NORTH_PERIMETER_EAST_WALL,
  Wall,
  SCREENING_EXTERIOR_WALL,
  F4_RTU4_NORTH_PERIMETER,
  ,
  Outdoors,
  ,
  SunExposed,
  WindExposed,
  autocalculate,
  4,
  93,
  20,
  8,
  93,
  20,
  4.6,
  93,
  25,
  4.6,
  93,
  25,
  8;

BuildingSurface:Detailed,
  F4_RTU4_NORTH_PERIMETER_NORTH_WALL,
  Wall,
  SCREENING_EXTERIOR_WALL,
  F4_RTU4_NORTH_PERIMETER,
  ,
  Outdoors,
  ,
  SunExposed,
  WindExposed,
  autocalculate,
  4,
  93,
  25,
  8,
  93,
  25,
  4.6,
  69.75,
  25,
  4.6,
  69.75,
  25,
  8;

BuildingSurface:Detailed,
  F4_RTU4_NORTH_PERIMETER_WEST_WALL,
  Wall,
  SCREENING_INTERIOR,
  F4_RTU4_NORTH_PERIMETER,
  ,
  Adiabatic,
  ,
  NoSun,
  NoWind,
  autocalculate,
  4,
  69.75,
  25,
  8,
  69.75,
  25,
  4.6,
  69.75,
  20,
  4.6,
  69.75,
  20,
  8;

BuildingSurface:Detailed,
  F4_RTU4_NORTH_PERIMETER_FLOOR,
  Floor,
  SCREENING_FLOOR,
  F4_RTU4_NORTH_PERIMETER,
  ,
  Adiabatic,
  ,
  NoSun,
  NoWind,
  autocalculate,
  4,
  69.75,
  20,
  4.6,
  69.75,
  25,
  4.6,
  93,
  25,
  4.6,
  93,
  20,
  4.6;

BuildingSurface:Detailed,
  F4_RTU4_NORTH_PERIMETER_CEILING,
  Roof,
  SCREENING_ROOF,
  F4_RTU4_NORTH_PERIMETER,
  ,
  Outdoors,
  ,
  SunExposed,
  WindExposed,
  autocalculate,
  4,
  69.75,
  25,
  8,
  69.75,
  20,
  8,
  93,
  20,
  8,
  93,
  25,
  8;

FenestrationSurface:Detailed,
  F4_RTU4_NORTH_PERIMETER_NORTH_WINDOW,
  Window,
  SCREENING_WINDOW,
  F4_RTU4_NORTH_PERIMETER_NORTH_WALL,
  ,
  autocalculate,
  ,
  1,
  4,
  90.675,
  25,
  7.15,
  90.675,
  25,
  5.45,
  72.075,
  25,
  5.45,
  72.075,
  25,
  7.15;

FenestrationSurface:Detailed,
  F4_RTU4_NORTH_PERIMETER_EAST_WINDOW,
  Window,
  SCREENING_WINDOW,
  F4_RTU4_NORTH_PERIMETER_EAST_WALL,
  ,
  autocalculate,
  ,
  1,
  4,
  93,
  20.5,
  7.15,
  93,
  20.5,
  5.45,
  93,
  24.5,
  5.45,
  93,
  24.5,
  7.15;

People,
  B59_SCREENING_PEOPLE,
  B59_SCREENING_OCCUPIED_ZONES,
  SCREENING_PEOPLE_FRACTION,
  Area/Person,
  ,
  ,
  20,
  0.3,
  autocalculate,
  SCREENING_ACTIVITY,
  ,
  No;

ElectricEquipment,
  B59_SCREENING_MEL,
  B59_SCREENING_OCCUPIED_ZONES,
  SCREENING_MEL_FRACTION,
  Watts/Area,
  ,
  15,
  ,
  0,
  0.5,
  0,
  OfficeMEL;

ZoneInfiltration:DesignFlowRate,
  B59_SCREENING_INFILTRATION,
  B59_SCREENING_OCCUPIED_ZONES,
  SCREENING_ALWAYS_ON,
  Flow/Area,
  ,
  0.0003,
  ,
  ,
  1,
  0,
  0,
  0;

Lights,
  B59_LIGHTS_METERED_SOUTH_PROXY_F3_RTU1_SOUTH_PERIMETER,
  F3_RTU1_SOUTH_PERIMETER,
  SCREENING_LIGHTS_FRACTION,
  Watts/Area,
  ,
  5.5,
  ,
  0,
  0.42,
  0.18,
  1,
  MeteredSouthPanelProxy;

Lights,
  B59_LIGHTS_UNMETERED_NORTH_PROXY_F3_RTU1_SOUTH_PERIMETER,
  F3_RTU1_SOUTH_PERIMETER,
  SCREENING_LIGHTS_FRACTION,
  Watts/Area,
  ,
  5.5,
  ,
  0,
  0.42,
  0.18,
  1,
  UnmeteredNorthPanelProxy;

Lights,
  B59_LIGHTS_METERED_SOUTH_PROXY_F3_RTU1_CORE,
  F3_RTU1_CORE,
  SCREENING_LIGHTS_FRACTION,
  Watts/Area,
  ,
  5.5,
  ,
  0,
  0.42,
  0.18,
  1,
  MeteredSouthPanelProxy;

Lights,
  B59_LIGHTS_UNMETERED_NORTH_PROXY_F3_RTU1_CORE,
  F3_RTU1_CORE,
  SCREENING_LIGHTS_FRACTION,
  Watts/Area,
  ,
  5.5,
  ,
  0,
  0.42,
  0.18,
  1,
  UnmeteredNorthPanelProxy;

Lights,
  B59_LIGHTS_METERED_SOUTH_PROXY_F3_RTU1_NORTH_PERIMETER,
  F3_RTU1_NORTH_PERIMETER,
  SCREENING_LIGHTS_FRACTION,
  Watts/Area,
  ,
  5.5,
  ,
  0,
  0.42,
  0.18,
  1,
  MeteredSouthPanelProxy;

Lights,
  B59_LIGHTS_UNMETERED_NORTH_PROXY_F3_RTU1_NORTH_PERIMETER,
  F3_RTU1_NORTH_PERIMETER,
  SCREENING_LIGHTS_FRACTION,
  Watts/Area,
  ,
  5.5,
  ,
  0,
  0.42,
  0.18,
  1,
  UnmeteredNorthPanelProxy;

Lights,
  B59_LIGHTS_METERED_SOUTH_PROXY_F3_RTU2_SOUTH_PERIMETER,
  F3_RTU2_SOUTH_PERIMETER,
  SCREENING_LIGHTS_FRACTION,
  Watts/Area,
  ,
  5.5,
  ,
  0,
  0.42,
  0.18,
  1,
  MeteredSouthPanelProxy;

Lights,
  B59_LIGHTS_UNMETERED_NORTH_PROXY_F3_RTU2_SOUTH_PERIMETER,
  F3_RTU2_SOUTH_PERIMETER,
  SCREENING_LIGHTS_FRACTION,
  Watts/Area,
  ,
  5.5,
  ,
  0,
  0.42,
  0.18,
  1,
  UnmeteredNorthPanelProxy;

Lights,
  B59_LIGHTS_METERED_SOUTH_PROXY_F3_RTU2_CORE,
  F3_RTU2_CORE,
  SCREENING_LIGHTS_FRACTION,
  Watts/Area,
  ,
  5.5,
  ,
  0,
  0.42,
  0.18,
  1,
  MeteredSouthPanelProxy;

Lights,
  B59_LIGHTS_UNMETERED_NORTH_PROXY_F3_RTU2_CORE,
  F3_RTU2_CORE,
  SCREENING_LIGHTS_FRACTION,
  Watts/Area,
  ,
  5.5,
  ,
  0,
  0.42,
  0.18,
  1,
  UnmeteredNorthPanelProxy;

Lights,
  B59_LIGHTS_METERED_SOUTH_PROXY_F3_RTU2_NORTH_PERIMETER,
  F3_RTU2_NORTH_PERIMETER,
  SCREENING_LIGHTS_FRACTION,
  Watts/Area,
  ,
  5.5,
  ,
  0,
  0.42,
  0.18,
  1,
  MeteredSouthPanelProxy;

Lights,
  B59_LIGHTS_UNMETERED_NORTH_PROXY_F3_RTU2_NORTH_PERIMETER,
  F3_RTU2_NORTH_PERIMETER,
  SCREENING_LIGHTS_FRACTION,
  Watts/Area,
  ,
  5.5,
  ,
  0,
  0.42,
  0.18,
  1,
  UnmeteredNorthPanelProxy;

Lights,
  B59_LIGHTS_METERED_SOUTH_PROXY_F3_RTU3_SOUTH_PERIMETER,
  F3_RTU3_SOUTH_PERIMETER,
  SCREENING_LIGHTS_FRACTION,
  Watts/Area,
  ,
  5.5,
  ,
  0,
  0.42,
  0.18,
  1,
  MeteredSouthPanelProxy;

Lights,
  B59_LIGHTS_UNMETERED_NORTH_PROXY_F3_RTU3_SOUTH_PERIMETER,
  F3_RTU3_SOUTH_PERIMETER,
  SCREENING_LIGHTS_FRACTION,
  Watts/Area,
  ,
  5.5,
  ,
  0,
  0.42,
  0.18,
  1,
  UnmeteredNorthPanelProxy;

Lights,
  B59_LIGHTS_METERED_SOUTH_PROXY_F3_RTU3_CORE,
  F3_RTU3_CORE,
  SCREENING_LIGHTS_FRACTION,
  Watts/Area,
  ,
  5.5,
  ,
  0,
  0.42,
  0.18,
  1,
  MeteredSouthPanelProxy;

Lights,
  B59_LIGHTS_UNMETERED_NORTH_PROXY_F3_RTU3_CORE,
  F3_RTU3_CORE,
  SCREENING_LIGHTS_FRACTION,
  Watts/Area,
  ,
  5.5,
  ,
  0,
  0.42,
  0.18,
  1,
  UnmeteredNorthPanelProxy;

Lights,
  B59_LIGHTS_METERED_SOUTH_PROXY_F3_RTU3_NORTH_PERIMETER,
  F3_RTU3_NORTH_PERIMETER,
  SCREENING_LIGHTS_FRACTION,
  Watts/Area,
  ,
  5.5,
  ,
  0,
  0.42,
  0.18,
  1,
  MeteredSouthPanelProxy;

Lights,
  B59_LIGHTS_UNMETERED_NORTH_PROXY_F3_RTU3_NORTH_PERIMETER,
  F3_RTU3_NORTH_PERIMETER,
  SCREENING_LIGHTS_FRACTION,
  Watts/Area,
  ,
  5.5,
  ,
  0,
  0.42,
  0.18,
  1,
  UnmeteredNorthPanelProxy;

Lights,
  B59_LIGHTS_METERED_SOUTH_PROXY_F3_RTU4_SOUTH_PERIMETER,
  F3_RTU4_SOUTH_PERIMETER,
  SCREENING_LIGHTS_FRACTION,
  Watts/Area,
  ,
  5.5,
  ,
  0,
  0.42,
  0.18,
  1,
  MeteredSouthPanelProxy;

Lights,
  B59_LIGHTS_UNMETERED_NORTH_PROXY_F3_RTU4_SOUTH_PERIMETER,
  F3_RTU4_SOUTH_PERIMETER,
  SCREENING_LIGHTS_FRACTION,
  Watts/Area,
  ,
  5.5,
  ,
  0,
  0.42,
  0.18,
  1,
  UnmeteredNorthPanelProxy;

Lights,
  B59_LIGHTS_METERED_SOUTH_PROXY_F3_RTU4_CORE,
  F3_RTU4_CORE,
  SCREENING_LIGHTS_FRACTION,
  Watts/Area,
  ,
  5.5,
  ,
  0,
  0.42,
  0.18,
  1,
  MeteredSouthPanelProxy;

Lights,
  B59_LIGHTS_UNMETERED_NORTH_PROXY_F3_RTU4_CORE,
  F3_RTU4_CORE,
  SCREENING_LIGHTS_FRACTION,
  Watts/Area,
  ,
  5.5,
  ,
  0,
  0.42,
  0.18,
  1,
  UnmeteredNorthPanelProxy;

Lights,
  B59_LIGHTS_METERED_SOUTH_PROXY_F3_RTU4_NORTH_PERIMETER,
  F3_RTU4_NORTH_PERIMETER,
  SCREENING_LIGHTS_FRACTION,
  Watts/Area,
  ,
  5.5,
  ,
  0,
  0.42,
  0.18,
  1,
  MeteredSouthPanelProxy;

Lights,
  B59_LIGHTS_UNMETERED_NORTH_PROXY_F3_RTU4_NORTH_PERIMETER,
  F3_RTU4_NORTH_PERIMETER,
  SCREENING_LIGHTS_FRACTION,
  Watts/Area,
  ,
  5.5,
  ,
  0,
  0.42,
  0.18,
  1,
  UnmeteredNorthPanelProxy;

Lights,
  B59_LIGHTS_METERED_SOUTH_PROXY_F4_RTU1_SOUTH_PERIMETER,
  F4_RTU1_SOUTH_PERIMETER,
  SCREENING_LIGHTS_FRACTION,
  Watts/Area,
  ,
  5.5,
  ,
  0,
  0.42,
  0.18,
  1,
  MeteredSouthPanelProxy;

Lights,
  B59_LIGHTS_UNMETERED_NORTH_PROXY_F4_RTU1_SOUTH_PERIMETER,
  F4_RTU1_SOUTH_PERIMETER,
  SCREENING_LIGHTS_FRACTION,
  Watts/Area,
  ,
  5.5,
  ,
  0,
  0.42,
  0.18,
  1,
  UnmeteredNorthPanelProxy;

Lights,
  B59_LIGHTS_METERED_SOUTH_PROXY_F4_RTU1_CORE,
  F4_RTU1_CORE,
  SCREENING_LIGHTS_FRACTION,
  Watts/Area,
  ,
  5.5,
  ,
  0,
  0.42,
  0.18,
  1,
  MeteredSouthPanelProxy;

Lights,
  B59_LIGHTS_UNMETERED_NORTH_PROXY_F4_RTU1_CORE,
  F4_RTU1_CORE,
  SCREENING_LIGHTS_FRACTION,
  Watts/Area,
  ,
  5.5,
  ,
  0,
  0.42,
  0.18,
  1,
  UnmeteredNorthPanelProxy;

Lights,
  B59_LIGHTS_METERED_SOUTH_PROXY_F4_RTU1_NORTH_PERIMETER,
  F4_RTU1_NORTH_PERIMETER,
  SCREENING_LIGHTS_FRACTION,
  Watts/Area,
  ,
  5.5,
  ,
  0,
  0.42,
  0.18,
  1,
  MeteredSouthPanelProxy;

Lights,
  B59_LIGHTS_UNMETERED_NORTH_PROXY_F4_RTU1_NORTH_PERIMETER,
  F4_RTU1_NORTH_PERIMETER,
  SCREENING_LIGHTS_FRACTION,
  Watts/Area,
  ,
  5.5,
  ,
  0,
  0.42,
  0.18,
  1,
  UnmeteredNorthPanelProxy;

Lights,
  B59_LIGHTS_METERED_SOUTH_PROXY_F4_RTU2_SOUTH_PERIMETER,
  F4_RTU2_SOUTH_PERIMETER,
  SCREENING_LIGHTS_FRACTION,
  Watts/Area,
  ,
  5.5,
  ,
  0,
  0.42,
  0.18,
  1,
  MeteredSouthPanelProxy;

Lights,
  B59_LIGHTS_UNMETERED_NORTH_PROXY_F4_RTU2_SOUTH_PERIMETER,
  F4_RTU2_SOUTH_PERIMETER,
  SCREENING_LIGHTS_FRACTION,
  Watts/Area,
  ,
  5.5,
  ,
  0,
  0.42,
  0.18,
  1,
  UnmeteredNorthPanelProxy;

Lights,
  B59_LIGHTS_METERED_SOUTH_PROXY_F4_RTU2_CORE,
  F4_RTU2_CORE,
  SCREENING_LIGHTS_FRACTION,
  Watts/Area,
  ,
  5.5,
  ,
  0,
  0.42,
  0.18,
  1,
  MeteredSouthPanelProxy;

Lights,
  B59_LIGHTS_UNMETERED_NORTH_PROXY_F4_RTU2_CORE,
  F4_RTU2_CORE,
  SCREENING_LIGHTS_FRACTION,
  Watts/Area,
  ,
  5.5,
  ,
  0,
  0.42,
  0.18,
  1,
  UnmeteredNorthPanelProxy;

Lights,
  B59_LIGHTS_METERED_SOUTH_PROXY_F4_RTU2_NORTH_PERIMETER,
  F4_RTU2_NORTH_PERIMETER,
  SCREENING_LIGHTS_FRACTION,
  Watts/Area,
  ,
  5.5,
  ,
  0,
  0.42,
  0.18,
  1,
  MeteredSouthPanelProxy;

Lights,
  B59_LIGHTS_UNMETERED_NORTH_PROXY_F4_RTU2_NORTH_PERIMETER,
  F4_RTU2_NORTH_PERIMETER,
  SCREENING_LIGHTS_FRACTION,
  Watts/Area,
  ,
  5.5,
  ,
  0,
  0.42,
  0.18,
  1,
  UnmeteredNorthPanelProxy;

Lights,
  B59_LIGHTS_METERED_SOUTH_PROXY_F4_RTU3_SOUTH_PERIMETER,
  F4_RTU3_SOUTH_PERIMETER,
  SCREENING_LIGHTS_FRACTION,
  Watts/Area,
  ,
  5.5,
  ,
  0,
  0.42,
  0.18,
  1,
  MeteredSouthPanelProxy;

Lights,
  B59_LIGHTS_UNMETERED_NORTH_PROXY_F4_RTU3_SOUTH_PERIMETER,
  F4_RTU3_SOUTH_PERIMETER,
  SCREENING_LIGHTS_FRACTION,
  Watts/Area,
  ,
  5.5,
  ,
  0,
  0.42,
  0.18,
  1,
  UnmeteredNorthPanelProxy;

Lights,
  B59_LIGHTS_METERED_SOUTH_PROXY_F4_RTU3_CORE,
  F4_RTU3_CORE,
  SCREENING_LIGHTS_FRACTION,
  Watts/Area,
  ,
  5.5,
  ,
  0,
  0.42,
  0.18,
  1,
  MeteredSouthPanelProxy;

Lights,
  B59_LIGHTS_UNMETERED_NORTH_PROXY_F4_RTU3_CORE,
  F4_RTU3_CORE,
  SCREENING_LIGHTS_FRACTION,
  Watts/Area,
  ,
  5.5,
  ,
  0,
  0.42,
  0.18,
  1,
  UnmeteredNorthPanelProxy;

Lights,
  B59_LIGHTS_METERED_SOUTH_PROXY_F4_RTU3_NORTH_PERIMETER,
  F4_RTU3_NORTH_PERIMETER,
  SCREENING_LIGHTS_FRACTION,
  Watts/Area,
  ,
  5.5,
  ,
  0,
  0.42,
  0.18,
  1,
  MeteredSouthPanelProxy;

Lights,
  B59_LIGHTS_UNMETERED_NORTH_PROXY_F4_RTU3_NORTH_PERIMETER,
  F4_RTU3_NORTH_PERIMETER,
  SCREENING_LIGHTS_FRACTION,
  Watts/Area,
  ,
  5.5,
  ,
  0,
  0.42,
  0.18,
  1,
  UnmeteredNorthPanelProxy;

Lights,
  B59_LIGHTS_METERED_SOUTH_PROXY_F4_RTU4_SOUTH_PERIMETER,
  F4_RTU4_SOUTH_PERIMETER,
  SCREENING_LIGHTS_FRACTION,
  Watts/Area,
  ,
  5.5,
  ,
  0,
  0.42,
  0.18,
  1,
  MeteredSouthPanelProxy;

Lights,
  B59_LIGHTS_UNMETERED_NORTH_PROXY_F4_RTU4_SOUTH_PERIMETER,
  F4_RTU4_SOUTH_PERIMETER,
  SCREENING_LIGHTS_FRACTION,
  Watts/Area,
  ,
  5.5,
  ,
  0,
  0.42,
  0.18,
  1,
  UnmeteredNorthPanelProxy;

Lights,
  B59_LIGHTS_METERED_SOUTH_PROXY_F4_RTU4_CORE,
  F4_RTU4_CORE,
  SCREENING_LIGHTS_FRACTION,
  Watts/Area,
  ,
  5.5,
  ,
  0,
  0.42,
  0.18,
  1,
  MeteredSouthPanelProxy;

Lights,
  B59_LIGHTS_UNMETERED_NORTH_PROXY_F4_RTU4_CORE,
  F4_RTU4_CORE,
  SCREENING_LIGHTS_FRACTION,
  Watts/Area,
  ,
  5.5,
  ,
  0,
  0.42,
  0.18,
  1,
  UnmeteredNorthPanelProxy;

Lights,
  B59_LIGHTS_METERED_SOUTH_PROXY_F4_RTU4_NORTH_PERIMETER,
  F4_RTU4_NORTH_PERIMETER,
  SCREENING_LIGHTS_FRACTION,
  Watts/Area,
  ,
  5.5,
  ,
  0,
  0.42,
  0.18,
  1,
  MeteredSouthPanelProxy;

Lights,
  B59_LIGHTS_UNMETERED_NORTH_PROXY_F4_RTU4_NORTH_PERIMETER,
  F4_RTU4_NORTH_PERIMETER,
  SCREENING_LIGHTS_FRACTION,
  Watts/Area,
  ,
  5.5,
  ,
  0,
  0.42,
  0.18,
  1,
  UnmeteredNorthPanelProxy;

HVACTemplate:Thermostat,
  B59_SCREENING_THERMOSTAT,
  SCREENING_HEATING_SETPOINT,
  ,
  SCREENING_COOLING_SETPOINT,
  ;

HVACTemplate:Zone:VAV,
  F3_RTU1_SOUTH_PERIMETER,
  B59_RTU_1,
  B59_SCREENING_THERMOSTAT,
  0.63712906,
  ,
  ,
  Constant,
  0.2,
  ,
  ,
  Flow/Area,
  0,
  0.0020298815,
  0,
  Electric,
  SCREENING_HVAC_AVAILABILITY,
  Reverse,
  ,
  ,
  35,
  ,
  F3_RTU1_SOUTH_PERIMETER_UFAD_PLENUM,
  ,
  None,
  ,
  autosize,
  SystemSupplyAirTemperature,
  ,
  ,
  SupplyAirTemperature,
  35,
  ;

HVACTemplate:Zone:VAV,
  F3_RTU1_CORE,
  B59_RTU_1,
  B59_SCREENING_THERMOSTAT,
  1.9113872,
  ,
  ,
  Constant,
  0.2,
  ,
  ,
  Flow/Area,
  0,
  0.0020298815,
  0,
  Electric,
  SCREENING_HVAC_AVAILABILITY,
  Reverse,
  ,
  ,
  35,
  ,
  F3_RTU1_CORE_UFAD_PLENUM,
  ,
  None,
  ,
  autosize,
  SystemSupplyAirTemperature,
  ,
  ,
  SupplyAirTemperature,
  35,
  ;

HVACTemplate:Zone:VAV,
  F3_RTU1_NORTH_PERIMETER,
  B59_RTU_1,
  B59_SCREENING_THERMOSTAT,
  0.63712906,
  ,
  ,
  Constant,
  0.2,
  ,
  ,
  Flow/Area,
  0,
  0.0020298815,
  0,
  Electric,
  SCREENING_HVAC_AVAILABILITY,
  Reverse,
  ,
  ,
  35,
  ,
  F3_RTU1_NORTH_PERIMETER_UFAD_PLENUM,
  ,
  None,
  ,
  autosize,
  SystemSupplyAirTemperature,
  ,
  ,
  SupplyAirTemperature,
  35,
  ;

HVACTemplate:Zone:VAV,
  F3_RTU2_SOUTH_PERIMETER,
  B59_RTU_2,
  B59_SCREENING_THERMOSTAT,
  0.63712906,
  ,
  ,
  Constant,
  0.2,
  ,
  ,
  Flow/Area,
  0,
  0.0020298815,
  0,
  Electric,
  SCREENING_HVAC_AVAILABILITY,
  Reverse,
  ,
  ,
  35,
  ,
  F3_RTU2_SOUTH_PERIMETER_UFAD_PLENUM,
  ,
  None,
  ,
  autosize,
  SystemSupplyAirTemperature,
  ,
  ,
  SupplyAirTemperature,
  35,
  ;

HVACTemplate:Zone:VAV,
  F3_RTU2_CORE,
  B59_RTU_2,
  B59_SCREENING_THERMOSTAT,
  1.9113872,
  ,
  ,
  Constant,
  0.2,
  ,
  ,
  Flow/Area,
  0,
  0.0020298815,
  0,
  Electric,
  SCREENING_HVAC_AVAILABILITY,
  Reverse,
  ,
  ,
  35,
  ,
  F3_RTU2_CORE_UFAD_PLENUM,
  ,
  None,
  ,
  autosize,
  SystemSupplyAirTemperature,
  ,
  ,
  SupplyAirTemperature,
  35,
  ;

HVACTemplate:Zone:VAV,
  F3_RTU2_NORTH_PERIMETER,
  B59_RTU_2,
  B59_SCREENING_THERMOSTAT,
  0.63712906,
  ,
  ,
  Constant,
  0.2,
  ,
  ,
  Flow/Area,
  0,
  0.0020298815,
  0,
  Electric,
  SCREENING_HVAC_AVAILABILITY,
  Reverse,
  ,
  ,
  35,
  ,
  F3_RTU2_NORTH_PERIMETER_UFAD_PLENUM,
  ,
  None,
  ,
  autosize,
  SystemSupplyAirTemperature,
  ,
  ,
  SupplyAirTemperature,
  35,
  ;

HVACTemplate:Zone:VAV,
  F3_RTU3_SOUTH_PERIMETER,
  B59_RTU_3,
  B59_SCREENING_THERMOSTAT,
  0.63712906,
  ,
  ,
  Constant,
  0.2,
  ,
  ,
  Flow/Area,
  0,
  0.0020298815,
  0,
  Electric,
  SCREENING_HVAC_AVAILABILITY,
  Reverse,
  ,
  ,
  35,
  ,
  F3_RTU3_SOUTH_PERIMETER_UFAD_PLENUM,
  ,
  None,
  ,
  autosize,
  SystemSupplyAirTemperature,
  ,
  ,
  SupplyAirTemperature,
  35,
  ;

HVACTemplate:Zone:VAV,
  F3_RTU3_CORE,
  B59_RTU_3,
  B59_SCREENING_THERMOSTAT,
  1.9113872,
  ,
  ,
  Constant,
  0.2,
  ,
  ,
  Flow/Area,
  0,
  0.0020298815,
  0,
  Electric,
  SCREENING_HVAC_AVAILABILITY,
  Reverse,
  ,
  ,
  35,
  ,
  F3_RTU3_CORE_UFAD_PLENUM,
  ,
  None,
  ,
  autosize,
  SystemSupplyAirTemperature,
  ,
  ,
  SupplyAirTemperature,
  35,
  ;

HVACTemplate:Zone:VAV,
  F3_RTU3_NORTH_PERIMETER,
  B59_RTU_3,
  B59_SCREENING_THERMOSTAT,
  0.63712906,
  ,
  ,
  Constant,
  0.2,
  ,
  ,
  Flow/Area,
  0,
  0.0020298815,
  0,
  Electric,
  SCREENING_HVAC_AVAILABILITY,
  Reverse,
  ,
  ,
  35,
  ,
  F3_RTU3_NORTH_PERIMETER_UFAD_PLENUM,
  ,
  None,
  ,
  autosize,
  SystemSupplyAirTemperature,
  ,
  ,
  SupplyAirTemperature,
  35,
  ;

HVACTemplate:Zone:VAV,
  F3_RTU4_SOUTH_PERIMETER,
  B59_RTU_4,
  B59_SCREENING_THERMOSTAT,
  0.63712906,
  ,
  ,
  Constant,
  0.2,
  ,
  ,
  Flow/Area,
  0,
  0.0020298815,
  0,
  Electric,
  SCREENING_HVAC_AVAILABILITY,
  Reverse,
  ,
  ,
  35,
  ,
  F3_RTU4_SOUTH_PERIMETER_UFAD_PLENUM,
  ,
  None,
  ,
  autosize,
  SystemSupplyAirTemperature,
  ,
  ,
  SupplyAirTemperature,
  35,
  ;

HVACTemplate:Zone:VAV,
  F3_RTU4_CORE,
  B59_RTU_4,
  B59_SCREENING_THERMOSTAT,
  1.9113872,
  ,
  ,
  Constant,
  0.2,
  ,
  ,
  Flow/Area,
  0,
  0.0020298815,
  0,
  Electric,
  SCREENING_HVAC_AVAILABILITY,
  Reverse,
  ,
  ,
  35,
  ,
  F3_RTU4_CORE_UFAD_PLENUM,
  ,
  None,
  ,
  autosize,
  SystemSupplyAirTemperature,
  ,
  ,
  SupplyAirTemperature,
  35,
  ;

HVACTemplate:Zone:VAV,
  F3_RTU4_NORTH_PERIMETER,
  B59_RTU_4,
  B59_SCREENING_THERMOSTAT,
  0.63712906,
  ,
  ,
  Constant,
  0.2,
  ,
  ,
  Flow/Area,
  0,
  0.0020298815,
  0,
  Electric,
  SCREENING_HVAC_AVAILABILITY,
  Reverse,
  ,
  ,
  35,
  ,
  F3_RTU4_NORTH_PERIMETER_UFAD_PLENUM,
  ,
  None,
  ,
  autosize,
  SystemSupplyAirTemperature,
  ,
  ,
  SupplyAirTemperature,
  35,
  ;

HVACTemplate:Zone:VAV,
  F4_RTU1_SOUTH_PERIMETER,
  B59_RTU_1,
  B59_SCREENING_THERMOSTAT,
  0.63712906,
  ,
  ,
  Constant,
  0.2,
  ,
  ,
  Flow/Area,
  0,
  0.0020298815,
  0,
  Electric,
  SCREENING_HVAC_AVAILABILITY,
  Reverse,
  ,
  ,
  35,
  ,
  F4_RTU1_SOUTH_PERIMETER_UFAD_PLENUM,
  ,
  None,
  ,
  autosize,
  SystemSupplyAirTemperature,
  ,
  ,
  SupplyAirTemperature,
  35,
  ;

HVACTemplate:Zone:VAV,
  F4_RTU1_CORE,
  B59_RTU_1,
  B59_SCREENING_THERMOSTAT,
  1.9113872,
  ,
  ,
  Constant,
  0.2,
  ,
  ,
  Flow/Area,
  0,
  0.0020298815,
  0,
  Electric,
  SCREENING_HVAC_AVAILABILITY,
  Reverse,
  ,
  ,
  35,
  ,
  F4_RTU1_CORE_UFAD_PLENUM,
  ,
  None,
  ,
  autosize,
  SystemSupplyAirTemperature,
  ,
  ,
  SupplyAirTemperature,
  35,
  ;

HVACTemplate:Zone:VAV,
  F4_RTU1_NORTH_PERIMETER,
  B59_RTU_1,
  B59_SCREENING_THERMOSTAT,
  0.63712906,
  ,
  ,
  Constant,
  0.2,
  ,
  ,
  Flow/Area,
  0,
  0.0020298815,
  0,
  Electric,
  SCREENING_HVAC_AVAILABILITY,
  Reverse,
  ,
  ,
  35,
  ,
  F4_RTU1_NORTH_PERIMETER_UFAD_PLENUM,
  ,
  None,
  ,
  autosize,
  SystemSupplyAirTemperature,
  ,
  ,
  SupplyAirTemperature,
  35,
  ;

HVACTemplate:Zone:VAV,
  F4_RTU2_SOUTH_PERIMETER,
  B59_RTU_2,
  B59_SCREENING_THERMOSTAT,
  0.63712906,
  ,
  ,
  Constant,
  0.2,
  ,
  ,
  Flow/Area,
  0,
  0.0020298815,
  0,
  Electric,
  SCREENING_HVAC_AVAILABILITY,
  Reverse,
  ,
  ,
  35,
  ,
  F4_RTU2_SOUTH_PERIMETER_UFAD_PLENUM,
  ,
  None,
  ,
  autosize,
  SystemSupplyAirTemperature,
  ,
  ,
  SupplyAirTemperature,
  35,
  ;

HVACTemplate:Zone:VAV,
  F4_RTU2_CORE,
  B59_RTU_2,
  B59_SCREENING_THERMOSTAT,
  1.9113872,
  ,
  ,
  Constant,
  0.2,
  ,
  ,
  Flow/Area,
  0,
  0.0020298815,
  0,
  Electric,
  SCREENING_HVAC_AVAILABILITY,
  Reverse,
  ,
  ,
  35,
  ,
  F4_RTU2_CORE_UFAD_PLENUM,
  ,
  None,
  ,
  autosize,
  SystemSupplyAirTemperature,
  ,
  ,
  SupplyAirTemperature,
  35,
  ;

HVACTemplate:Zone:VAV,
  F4_RTU2_NORTH_PERIMETER,
  B59_RTU_2,
  B59_SCREENING_THERMOSTAT,
  0.63712906,
  ,
  ,
  Constant,
  0.2,
  ,
  ,
  Flow/Area,
  0,
  0.0020298815,
  0,
  Electric,
  SCREENING_HVAC_AVAILABILITY,
  Reverse,
  ,
  ,
  35,
  ,
  F4_RTU2_NORTH_PERIMETER_UFAD_PLENUM,
  ,
  None,
  ,
  autosize,
  SystemSupplyAirTemperature,
  ,
  ,
  SupplyAirTemperature,
  35,
  ;

HVACTemplate:Zone:VAV,
  F4_RTU3_SOUTH_PERIMETER,
  B59_RTU_3,
  B59_SCREENING_THERMOSTAT,
  0.63712906,
  ,
  ,
  Constant,
  0.2,
  ,
  ,
  Flow/Area,
  0,
  0.0020298815,
  0,
  Electric,
  SCREENING_HVAC_AVAILABILITY,
  Reverse,
  ,
  ,
  35,
  ,
  F4_RTU3_SOUTH_PERIMETER_UFAD_PLENUM,
  ,
  None,
  ,
  autosize,
  SystemSupplyAirTemperature,
  ,
  ,
  SupplyAirTemperature,
  35,
  ;

HVACTemplate:Zone:VAV,
  F4_RTU3_CORE,
  B59_RTU_3,
  B59_SCREENING_THERMOSTAT,
  1.9113872,
  ,
  ,
  Constant,
  0.2,
  ,
  ,
  Flow/Area,
  0,
  0.0020298815,
  0,
  Electric,
  SCREENING_HVAC_AVAILABILITY,
  Reverse,
  ,
  ,
  35,
  ,
  F4_RTU3_CORE_UFAD_PLENUM,
  ,
  None,
  ,
  autosize,
  SystemSupplyAirTemperature,
  ,
  ,
  SupplyAirTemperature,
  35,
  ;

HVACTemplate:Zone:VAV,
  F4_RTU3_NORTH_PERIMETER,
  B59_RTU_3,
  B59_SCREENING_THERMOSTAT,
  0.63712906,
  ,
  ,
  Constant,
  0.2,
  ,
  ,
  Flow/Area,
  0,
  0.0020298815,
  0,
  Electric,
  SCREENING_HVAC_AVAILABILITY,
  Reverse,
  ,
  ,
  35,
  ,
  F4_RTU3_NORTH_PERIMETER_UFAD_PLENUM,
  ,
  None,
  ,
  autosize,
  SystemSupplyAirTemperature,
  ,
  ,
  SupplyAirTemperature,
  35,
  ;

HVACTemplate:Zone:VAV,
  F4_RTU4_SOUTH_PERIMETER,
  B59_RTU_4,
  B59_SCREENING_THERMOSTAT,
  0.63712906,
  ,
  ,
  Constant,
  0.2,
  ,
  ,
  Flow/Area,
  0,
  0.0020298815,
  0,
  Electric,
  SCREENING_HVAC_AVAILABILITY,
  Reverse,
  ,
  ,
  35,
  ,
  F4_RTU4_SOUTH_PERIMETER_UFAD_PLENUM,
  ,
  None,
  ,
  autosize,
  SystemSupplyAirTemperature,
  ,
  ,
  SupplyAirTemperature,
  35,
  ;

HVACTemplate:Zone:VAV,
  F4_RTU4_CORE,
  B59_RTU_4,
  B59_SCREENING_THERMOSTAT,
  1.9113872,
  ,
  ,
  Constant,
  0.2,
  ,
  ,
  Flow/Area,
  0,
  0.0020298815,
  0,
  Electric,
  SCREENING_HVAC_AVAILABILITY,
  Reverse,
  ,
  ,
  35,
  ,
  F4_RTU4_CORE_UFAD_PLENUM,
  ,
  None,
  ,
  autosize,
  SystemSupplyAirTemperature,
  ,
  ,
  SupplyAirTemperature,
  35,
  ;

HVACTemplate:Zone:VAV,
  F4_RTU4_NORTH_PERIMETER,
  B59_RTU_4,
  B59_SCREENING_THERMOSTAT,
  0.63712906,
  ,
  ,
  Constant,
  0.2,
  ,
  ,
  Flow/Area,
  0,
  0.0020298815,
  0,
  Electric,
  SCREENING_HVAC_AVAILABILITY,
  Reverse,
  ,
  ,
  35,
  ,
  F4_RTU4_NORTH_PERIMETER_UFAD_PLENUM,
  ,
  None,
  ,
  autosize,
  SystemSupplyAirTemperature,
  ,
  ,
  SupplyAirTemperature,
  35,
  ;

HVACTemplate:System:PackagedVAV,
  B59_RTU_1,
  SCREENING_HVAC_AVAILABILITY,
  6.3712906,
  0,
  DrawThrough,
  0.7,
  1100,
  0.9,
  1,
  TwoSpeedDX,
  SCREENING_HVAC_AVAILABILITY,
  ,
  14.4,
  142432.54,
  0.7,
  4.1,
  None,
  ,
  ,
  10,
  0,
  ,
  ,
  6.3712906,
  2.3597373,
  FixedMinimum,
  SCREENING_HVAC_AVAILABILITY,
  DifferentialDryBulb,
  NoLockout,
  21,
  ,
  ,
  4,
  ,
  ,
  VariableSpeedMotorPressureReset,
  StayOff,
  ,
  None,
  0.7,
  0.65,
  None,
  None,
  None,
  ,
  60,
  None,
  ,
  1e-06,
  0,
  ,
  30,
  NonCoincident,
  Yes,
  0.7,
  415,
  0.9,
  1,
  VariableSpeedMotorPressureReset;

HVACTemplate:System:PackagedVAV,
  B59_RTU_2,
  SCREENING_HVAC_AVAILABILITY,
  6.3712906,
  0,
  DrawThrough,
  0.7,
  1100,
  0.9,
  1,
  TwoSpeedDX,
  SCREENING_HVAC_AVAILABILITY,
  ,
  14.4,
  142432.54,
  0.7,
  4.1,
  None,
  ,
  ,
  10,
  0,
  ,
  ,
  6.3712906,
  2.3597373,
  FixedMinimum,
  SCREENING_HVAC_AVAILABILITY,
  DifferentialDryBulb,
  NoLockout,
  21,
  ,
  ,
  4,
  ,
  ,
  VariableSpeedMotorPressureReset,
  StayOff,
  ,
  None,
  0.7,
  0.65,
  None,
  None,
  None,
  ,
  60,
  None,
  ,
  1e-06,
  0,
  ,
  30,
  NonCoincident,
  Yes,
  0.7,
  415,
  0.9,
  1,
  VariableSpeedMotorPressureReset;

HVACTemplate:System:PackagedVAV,
  B59_RTU_3,
  SCREENING_HVAC_AVAILABILITY,
  6.3712906,
  0,
  DrawThrough,
  0.7,
  1100,
  0.9,
  1,
  TwoSpeedDX,
  SCREENING_HVAC_AVAILABILITY,
  ,
  14.4,
  142432.54,
  0.7,
  4.1,
  None,
  ,
  ,
  10,
  0,
  ,
  ,
  6.3712906,
  2.3597373,
  FixedMinimum,
  SCREENING_HVAC_AVAILABILITY,
  DifferentialDryBulb,
  NoLockout,
  21,
  ,
  ,
  4,
  ,
  ,
  VariableSpeedMotorPressureReset,
  StayOff,
  ,
  None,
  0.7,
  0.65,
  None,
  None,
  None,
  ,
  60,
  None,
  ,
  1e-06,
  0,
  ,
  30,
  NonCoincident,
  Yes,
  0.7,
  415,
  0.9,
  1,
  VariableSpeedMotorPressureReset;

HVACTemplate:System:PackagedVAV,
  B59_RTU_4,
  SCREENING_HVAC_AVAILABILITY,
  6.3712906,
  0,
  DrawThrough,
  0.7,
  1100,
  0.9,
  1,
  TwoSpeedDX,
  SCREENING_HVAC_AVAILABILITY,
  ,
  14.4,
  142432.54,
  0.7,
  4.1,
  None,
  ,
  ,
  10,
  0,
  ,
  ,
  6.3712906,
  2.3597373,
  FixedMinimum,
  SCREENING_HVAC_AVAILABILITY,
  DifferentialDryBulb,
  NoLockout,
  21,
  ,
  ,
  4,
  ,
  ,
  VariableSpeedMotorPressureReset,
  StayOff,
  ,
  None,
  0.7,
  0.65,
  None,
  None,
  None,
  ,
  60,
  None,
  ,
  1e-06,
  0,
  ,
  30,
  NonCoincident,
  Yes,
  0.7,
  415,
  0.9,
  1,
  VariableSpeedMotorPressureReset;

Meter:Custom,
  B59:MeterBound:LightingSouth,
  Electricity,
  B59_LIGHTS_METERED_SOUTH_PROXY_F3_RTU1_SOUTH_PERIMETER,
  Lights Electricity Energy,
  B59_LIGHTS_METERED_SOUTH_PROXY_F3_RTU1_CORE,
  Lights Electricity Energy,
  B59_LIGHTS_METERED_SOUTH_PROXY_F3_RTU1_NORTH_PERIMETER,
  Lights Electricity Energy,
  B59_LIGHTS_METERED_SOUTH_PROXY_F3_RTU2_SOUTH_PERIMETER,
  Lights Electricity Energy,
  B59_LIGHTS_METERED_SOUTH_PROXY_F3_RTU2_CORE,
  Lights Electricity Energy,
  B59_LIGHTS_METERED_SOUTH_PROXY_F3_RTU2_NORTH_PERIMETER,
  Lights Electricity Energy,
  B59_LIGHTS_METERED_SOUTH_PROXY_F3_RTU3_SOUTH_PERIMETER,
  Lights Electricity Energy,
  B59_LIGHTS_METERED_SOUTH_PROXY_F3_RTU3_CORE,
  Lights Electricity Energy,
  B59_LIGHTS_METERED_SOUTH_PROXY_F3_RTU3_NORTH_PERIMETER,
  Lights Electricity Energy,
  B59_LIGHTS_METERED_SOUTH_PROXY_F3_RTU4_SOUTH_PERIMETER,
  Lights Electricity Energy,
  B59_LIGHTS_METERED_SOUTH_PROXY_F3_RTU4_CORE,
  Lights Electricity Energy,
  B59_LIGHTS_METERED_SOUTH_PROXY_F3_RTU4_NORTH_PERIMETER,
  Lights Electricity Energy,
  B59_LIGHTS_METERED_SOUTH_PROXY_F4_RTU1_SOUTH_PERIMETER,
  Lights Electricity Energy,
  B59_LIGHTS_METERED_SOUTH_PROXY_F4_RTU1_CORE,
  Lights Electricity Energy,
  B59_LIGHTS_METERED_SOUTH_PROXY_F4_RTU1_NORTH_PERIMETER,
  Lights Electricity Energy,
  B59_LIGHTS_METERED_SOUTH_PROXY_F4_RTU2_SOUTH_PERIMETER,
  Lights Electricity Energy,
  B59_LIGHTS_METERED_SOUTH_PROXY_F4_RTU2_CORE,
  Lights Electricity Energy,
  B59_LIGHTS_METERED_SOUTH_PROXY_F4_RTU2_NORTH_PERIMETER,
  Lights Electricity Energy,
  B59_LIGHTS_METERED_SOUTH_PROXY_F4_RTU3_SOUTH_PERIMETER,
  Lights Electricity Energy,
  B59_LIGHTS_METERED_SOUTH_PROXY_F4_RTU3_CORE,
  Lights Electricity Energy,
  B59_LIGHTS_METERED_SOUTH_PROXY_F4_RTU3_NORTH_PERIMETER,
  Lights Electricity Energy,
  B59_LIGHTS_METERED_SOUTH_PROXY_F4_RTU4_SOUTH_PERIMETER,
  Lights Electricity Energy,
  B59_LIGHTS_METERED_SOUTH_PROXY_F4_RTU4_CORE,
  Lights Electricity Energy,
  B59_LIGHTS_METERED_SOUTH_PROXY_F4_RTU4_NORTH_PERIMETER,
  Lights Electricity Energy;

Meter:Custom,
  B59:Unmetered:LightingNorth,
  Electricity,
  B59_LIGHTS_UNMETERED_NORTH_PROXY_F3_RTU1_SOUTH_PERIMETER,
  Lights Electricity Energy,
  B59_LIGHTS_UNMETERED_NORTH_PROXY_F3_RTU1_CORE,
  Lights Electricity Energy,
  B59_LIGHTS_UNMETERED_NORTH_PROXY_F3_RTU1_NORTH_PERIMETER,
  Lights Electricity Energy,
  B59_LIGHTS_UNMETERED_NORTH_PROXY_F3_RTU2_SOUTH_PERIMETER,
  Lights Electricity Energy,
  B59_LIGHTS_UNMETERED_NORTH_PROXY_F3_RTU2_CORE,
  Lights Electricity Energy,
  B59_LIGHTS_UNMETERED_NORTH_PROXY_F3_RTU2_NORTH_PERIMETER,
  Lights Electricity Energy,
  B59_LIGHTS_UNMETERED_NORTH_PROXY_F3_RTU3_SOUTH_PERIMETER,
  Lights Electricity Energy,
  B59_LIGHTS_UNMETERED_NORTH_PROXY_F3_RTU3_CORE,
  Lights Electricity Energy,
  B59_LIGHTS_UNMETERED_NORTH_PROXY_F3_RTU3_NORTH_PERIMETER,
  Lights Electricity Energy,
  B59_LIGHTS_UNMETERED_NORTH_PROXY_F3_RTU4_SOUTH_PERIMETER,
  Lights Electricity Energy,
  B59_LIGHTS_UNMETERED_NORTH_PROXY_F3_RTU4_CORE,
  Lights Electricity Energy,
  B59_LIGHTS_UNMETERED_NORTH_PROXY_F3_RTU4_NORTH_PERIMETER,
  Lights Electricity Energy,
  B59_LIGHTS_UNMETERED_NORTH_PROXY_F4_RTU1_SOUTH_PERIMETER,
  Lights Electricity Energy,
  B59_LIGHTS_UNMETERED_NORTH_PROXY_F4_RTU1_CORE,
  Lights Electricity Energy,
  B59_LIGHTS_UNMETERED_NORTH_PROXY_F4_RTU1_NORTH_PERIMETER,
  Lights Electricity Energy,
  B59_LIGHTS_UNMETERED_NORTH_PROXY_F4_RTU2_SOUTH_PERIMETER,
  Lights Electricity Energy,
  B59_LIGHTS_UNMETERED_NORTH_PROXY_F4_RTU2_CORE,
  Lights Electricity Energy,
  B59_LIGHTS_UNMETERED_NORTH_PROXY_F4_RTU2_NORTH_PERIMETER,
  Lights Electricity Energy,
  B59_LIGHTS_UNMETERED_NORTH_PROXY_F4_RTU3_SOUTH_PERIMETER,
  Lights Electricity Energy,
  B59_LIGHTS_UNMETERED_NORTH_PROXY_F4_RTU3_CORE,
  Lights Electricity Energy,
  B59_LIGHTS_UNMETERED_NORTH_PROXY_F4_RTU3_NORTH_PERIMETER,
  Lights Electricity Energy,
  B59_LIGHTS_UNMETERED_NORTH_PROXY_F4_RTU4_SOUTH_PERIMETER,
  Lights Electricity Energy,
  B59_LIGHTS_UNMETERED_NORTH_PROXY_F4_RTU4_CORE,
  Lights Electricity Energy,
  B59_LIGHTS_UNMETERED_NORTH_PROXY_F4_RTU4_NORTH_PERIMETER,
  Lights Electricity Energy;

Meter:Custom,
  B59:MeterBound:MELsSouthPlusNorth,
  Electricity,
  ,
  InteriorEquipment:Electricity;

Meter:Custom,
  B59:MappedRTU:FansPlusCooling,
  Electricity,
  ,
  Fans:Electricity,
  ,
  Cooling:Electricity;

Meter:Custom,
  B59:Unresolved:ElectricTerminalReheat,
  Electricity,
  ,
  Heating:Electricity;

Meter:Custom,
  B59:ScopeAudit:PartialMeterBoundProxy,
  Electricity,
  ,
  InteriorEquipment:Electricity,
  B59_LIGHTS_METERED_SOUTH_PROXY_F3_RTU1_SOUTH_PERIMETER,
  Lights Electricity Energy,
  B59_LIGHTS_METERED_SOUTH_PROXY_F3_RTU1_CORE,
  Lights Electricity Energy,
  B59_LIGHTS_METERED_SOUTH_PROXY_F3_RTU1_NORTH_PERIMETER,
  Lights Electricity Energy,
  B59_LIGHTS_METERED_SOUTH_PROXY_F3_RTU2_SOUTH_PERIMETER,
  Lights Electricity Energy,
  B59_LIGHTS_METERED_SOUTH_PROXY_F3_RTU2_CORE,
  Lights Electricity Energy,
  B59_LIGHTS_METERED_SOUTH_PROXY_F3_RTU2_NORTH_PERIMETER,
  Lights Electricity Energy,
  B59_LIGHTS_METERED_SOUTH_PROXY_F3_RTU3_SOUTH_PERIMETER,
  Lights Electricity Energy,
  B59_LIGHTS_METERED_SOUTH_PROXY_F3_RTU3_CORE,
  Lights Electricity Energy,
  B59_LIGHTS_METERED_SOUTH_PROXY_F3_RTU3_NORTH_PERIMETER,
  Lights Electricity Energy,
  B59_LIGHTS_METERED_SOUTH_PROXY_F3_RTU4_SOUTH_PERIMETER,
  Lights Electricity Energy,
  B59_LIGHTS_METERED_SOUTH_PROXY_F3_RTU4_CORE,
  Lights Electricity Energy,
  B59_LIGHTS_METERED_SOUTH_PROXY_F3_RTU4_NORTH_PERIMETER,
  Lights Electricity Energy,
  B59_LIGHTS_METERED_SOUTH_PROXY_F4_RTU1_SOUTH_PERIMETER,
  Lights Electricity Energy,
  B59_LIGHTS_METERED_SOUTH_PROXY_F4_RTU1_CORE,
  Lights Electricity Energy,
  B59_LIGHTS_METERED_SOUTH_PROXY_F4_RTU1_NORTH_PERIMETER,
  Lights Electricity Energy,
  B59_LIGHTS_METERED_SOUTH_PROXY_F4_RTU2_SOUTH_PERIMETER,
  Lights Electricity Energy,
  B59_LIGHTS_METERED_SOUTH_PROXY_F4_RTU2_CORE,
  Lights Electricity Energy,
  B59_LIGHTS_METERED_SOUTH_PROXY_F4_RTU2_NORTH_PERIMETER,
  Lights Electricity Energy,
  B59_LIGHTS_METERED_SOUTH_PROXY_F4_RTU3_SOUTH_PERIMETER,
  Lights Electricity Energy,
  B59_LIGHTS_METERED_SOUTH_PROXY_F4_RTU3_CORE,
  Lights Electricity Energy,
  B59_LIGHTS_METERED_SOUTH_PROXY_F4_RTU3_NORTH_PERIMETER,
  Lights Electricity Energy,
  B59_LIGHTS_METERED_SOUTH_PROXY_F4_RTU4_SOUTH_PERIMETER,
  Lights Electricity Energy,
  B59_LIGHTS_METERED_SOUTH_PROXY_F4_RTU4_CORE,
  Lights Electricity Energy,
  B59_LIGHTS_METERED_SOUTH_PROXY_F4_RTU4_NORTH_PERIMETER,
  Lights Electricity Energy,
  ,
  Fans:Electricity,
  ,
  Cooling:Electricity;

Output:Meter,
  Electricity:Facility,
  Hourly;

Output:Meter,
  Electricity:HVAC,
  Hourly;

Output:Meter,
  InteriorLights:Electricity,
  Hourly;

Output:Meter,
  InteriorEquipment:Electricity,
  Hourly;

Output:Meter,
  Fans:Electricity,
  Hourly;

Output:Meter,
  Cooling:Electricity,
  Hourly;

Output:Meter,
  Heating:Electricity,
  Hourly;

Output:Meter,
  B59:MeterBound:LightingSouth,
  Hourly;

Output:Meter,
  B59:Unmetered:LightingNorth,
  Hourly;

Output:Meter,
  B59:MeterBound:MELsSouthPlusNorth,
  Hourly;

Output:Meter,
  B59:MappedRTU:FansPlusCooling,
  Hourly;

Output:Meter,
  B59:Unresolved:ElectricTerminalReheat,
  Hourly;

Output:Meter,
  B59:ScopeAudit:PartialMeterBoundProxy,
  Hourly;
