!- Vibe 23 residential DSM demo model
!- CLAIM: HYPOTHETICAL_GL14_TUNED_DEMO_MODEL
!- ASSUMPTIONS: ILLUSTRATIVE_RESIDENTIAL_ASSUMPTIONS
!- HVAC: Carrier 50EZ060 R-410A 5-ton performance curves copied from
!-       EnergyPlus DataSets/RooftopPackagedHeatPump.idf (do not edit install files)
!- Timestep,12 => 5-minute zone timesteps (288/day). HVAC may sub-step internally.
!- Floor ~3500 ft2 single-zone detached home (18.03 m x 18.03 m x 3.05 m)

  Version,26.1;

  Timestep,12;

  Building,
    Residential Heat Pump Demo,  !- Name
    0,                       !- North Axis {deg}
    Suburbs,                 !- Terrain
    0.04,                    !- Loads Convergence Tolerance Value {W}
    0.004,                   !- Temperature Convergence Tolerance Value {deltaC}
    MinimalShadowing,        !- Solar Distribution
    30,                      !- Maximum Number of Warmup Days
    6;                       !- Minimum Number of Warmup Days

  HeatBalanceAlgorithm,ConductionTransferFunction;

  SurfaceConvectionAlgorithm:Inside,TARP;

  SurfaceConvectionAlgorithm:Outside,DOE-2;

  SimulationControl,
    No,                      !- Do Zone Sizing Calculation
    No,                      !- Do System Sizing Calculation
    No,                      !- Do Plant Sizing Calculation
    No,                      !- Run Simulation for Sizing Periods
    Yes,                     !- Run Simulation for Weather File Run Periods
    No,                      !- Do HVAC Sizing Simulation for Sizing Periods
    1;                       !- Maximum Number of HVAC Sizing Simulation Passes

  RunPeriod,
    RESIDENTIAL_BASE_DAY,    !- Name
    7,                       !- Begin Month
    15,                      !- Begin Day of Month
    ,                        !- Begin Year
    7,                       !- End Month
    15,                      !- End Day of Month
    ,                        !- End Year
    Tuesday,                 !- Day of Week for Start Day
    Yes,                     !- Use Weather File Holidays and Special Days
    Yes,                     !- Use Weather File Daylight Saving Period
    No,                      !- Apply Weekend Holiday Rule
    Yes,                     !- Use Weather File Rain Indicators
    Yes;                     !- Use Weather File Snow Indicators

  Site:Location,
    Denver Centennial  Golden   N_CO_USA Design_Conditions,  !- Name
    39.74,                   !- Latitude {deg}
    -105.18,                 !- Longitude {deg}
    -7.00,                   !- Time Zone {hr}
    1829.00;                 !- Elevation {m}

  SizingPeriod:DesignDay,
    Denver Centennial  Golden   N Ann Htg 99% Condns DB,  !- Name
    12,                      !- Month
    21,                      !- Day of Month
    WinterDesignDay,         !- Day Type
    -15.5,                   !- Maximum Dry-Bulb Temperature {C}
    0.0,                     !- Daily Dry-Bulb Temperature Range {deltaC}
    ,                        !- Dry-Bulb Temperature Range Modifier Type
    ,                        !- Dry-Bulb Temperature Range Modifier Day Schedule Name
    Wetbulb,                 !- Humidity Condition Type
    -15.5,                   !- Wetbulb or DewPoint at Maximum Dry-Bulb {C}
    ,                        !- Humidity Condition Day Schedule Name
    ,                        !- Humidity Ratio at Maximum Dry-Bulb {kgWater/kgDryAir}
    ,                        !- Enthalpy at Maximum Dry-Bulb {J/kg}
    ,                        !- Daily Wet-Bulb Temperature Range {deltaC}
    81198.,                  !- Barometric Pressure {Pa}
    3,                       !- Wind Speed {m/s}
    340,                     !- Wind Direction {deg}
    No,                      !- Rain Indicator
    No,                      !- Snow Indicator
    No,                      !- Daylight Saving Time Indicator
    ASHRAEClearSky,          !- Solar Model Indicator
    ,                        !- Beam Solar Day Schedule Name
    ,                        !- Diffuse Solar Day Schedule Name
    ,                        !- ASHRAE Clear Sky Optical Depth for Beam Irradiance (taub) {dimensionless}
    ,                        !- ASHRAE Clear Sky Optical Depth for Diffuse Irradiance (taud) {dimensionless}
    0.00;                    !- Sky Clearness

  SizingPeriod:DesignDay,
    Denver Centennial  Golden   N Ann Clg 1% Condns DB=>MWB,  !- Name
    7,                       !- Month
    21,                      !- Day of Month
    SummerDesignDay,         !- Day Type
    32,                      !- Maximum Dry-Bulb Temperature {C}
    15.2,                    !- Daily Dry-Bulb Temperature Range {deltaC}
    ,                        !- Dry-Bulb Temperature Range Modifier Type
    ,                        !- Dry-Bulb Temperature Range Modifier Day Schedule Name
    Wetbulb,                 !- Humidity Condition Type
    15.5,                    !- Wetbulb or DewPoint at Maximum Dry-Bulb {C}
    ,                        !- Humidity Condition Day Schedule Name
    ,                        !- Humidity Ratio at Maximum Dry-Bulb {kgWater/kgDryAir}
    ,                        !- Enthalpy at Maximum Dry-Bulb {J/kg}
    ,                        !- Daily Wet-Bulb Temperature Range {deltaC}
    81198.,                  !- Barometric Pressure {Pa}
    4.9,                     !- Wind Speed {m/s}
    0,                       !- Wind Direction {deg}
    No,                      !- Rain Indicator
    No,                      !- Snow Indicator
    No,                      !- Daylight Saving Time Indicator
    ASHRAEClearSky,          !- Solar Model Indicator
    ,                        !- Beam Solar Day Schedule Name
    ,                        !- Diffuse Solar Day Schedule Name
    ,                        !- ASHRAE Clear Sky Optical Depth for Beam Irradiance (taub) {dimensionless}
    ,                        !- ASHRAE Clear Sky Optical Depth for Diffuse Irradiance (taud) {dimensionless}
    1.00;                    !- Sky Clearness

  Material:NoMass,
    R13LAYER,                !- Name
    Rough,                   !- Roughness
    2.290965,                !- Thermal Resistance {m2-K/W}
    0.9000000,               !- Thermal Absorptance
    0.7500000,               !- Solar Absorptance
    0.7500000;               !- Visible Absorptance

  Material:NoMass,
    R31LAYER,                !- Name
    Rough,                   !- Roughness
    5.456,                   !- Thermal Resistance {m2-K/W}
    0.9000000,               !- Thermal Absorptance
    0.7500000,               !- Solar Absorptance
    0.7500000;               !- Visible Absorptance

  Material,
    C5 - 4 IN HW CONCRETE,   !- Name
    MediumRough,             !- Roughness
    0.1014984,               !- Thickness {m}
    1.729577,                !- Conductivity {W/m-K}
    2242.585,                !- Density {kg/m3}
    836.8000,                !- Specific Heat {J/kg-K}
    0.9000000,               !- Thermal Absorptance
    0.6500000,               !- Solar Absorptance
    0.6500000;               !- Visible Absorptance

  Material,
    Wood Furniture,          !- Name
    MediumSmooth,            !- Roughness
    0.05,                    !- Thickness {m}
    0.15,                    !- Conductivity {W/m-K}
    608.0,                   !- Density {kg/m3}
    1630.0,                  !- Specific Heat {J/kg-K}
    0.9,                     !- Thermal Absorptance
    0.7,                     !- Solar Absorptance
    0.7;                     !- Visible Absorptance

  Construction,
    R13WALL,                 !- Name
    R13LAYER;                !- Outside Layer

  Construction,
    FLOOR,                   !- Name
    C5 - 4 IN HW CONCRETE;   !- Outside Layer

  Construction,
    ROOF31,                  !- Name
    R31LAYER;                !- Outside Layer

  Construction,
    FurnitureConstruction,   !- Name
    Wood Furniture;          !- Outside Layer

  Zone,
    ZONE ONE,                !- Name
    0,                       !- Direction of Relative North {deg}
    0,                       !- X Origin {m}
    0,                       !- Y Origin {m}
    0,                       !- Z Origin {m}
    1,                       !- Type
    1,                       !- Multiplier
    3.05,                     !- Ceiling Height {m}
    991.4967;               !- Volume {m3}

  GlobalGeometryRules,
    UpperLeftCorner,         !- Starting Vertex Position
    CounterClockWise,        !- Vertex Entry Direction
    World;                   !- Coordinate System

  BuildingSurface:Detailed,
    Zn001:Wall001,           !- Name
    Wall,                    !- Surface Type
    R13WALL,                 !- Construction Name
    ZONE ONE,                !- Zone Name
    ,                        !- Space Name
    Outdoors,                !- Outside Boundary Condition
    ,                        !- Outside Boundary Condition Object
    SunExposed,              !- Sun Exposure
    WindExposed,             !- Wind Exposure
    0.5000000,               !- View Factor to Ground
    4,                       !- Number of Vertices
    0,0,3.05,  !- X,Y,Z ==> Vertex 1 {m}
    0,0,0,  !- X,Y,Z ==> Vertex 2 {m}
    18.03,0,0,  !- X,Y,Z ==> Vertex 3 {m}
    18.03,0,3.05;  !- X,Y,Z ==> Vertex 4 {m}

  BuildingSurface:Detailed,
    Zn001:Wall002,           !- Name
    Wall,                    !- Surface Type
    R13WALL,                 !- Construction Name
    ZONE ONE,                !- Zone Name
    ,                        !- Space Name
    Outdoors,                !- Outside Boundary Condition
    ,                        !- Outside Boundary Condition Object
    SunExposed,              !- Sun Exposure
    WindExposed,             !- Wind Exposure
    0.5000000,               !- View Factor to Ground
    4,                       !- Number of Vertices
    18.03,0,3.05,  !- X,Y,Z ==> Vertex 1 {m}
    18.03,0,0,  !- X,Y,Z ==> Vertex 2 {m}
    18.03,18.03,0,  !- X,Y,Z ==> Vertex 3 {m}
    18.03,18.03,3.05;  !- X,Y,Z ==> Vertex 4 {m}

  BuildingSurface:Detailed,
    Zn001:Wall003,           !- Name
    Wall,                    !- Surface Type
    R13WALL,                 !- Construction Name
    ZONE ONE,                !- Zone Name
    ,                        !- Space Name
    Outdoors,                !- Outside Boundary Condition
    ,                        !- Outside Boundary Condition Object
    SunExposed,              !- Sun Exposure
    WindExposed,             !- Wind Exposure
    0.5000000,               !- View Factor to Ground
    4,                       !- Number of Vertices
    18.03,18.03,3.05,  !- X,Y,Z ==> Vertex 1 {m}
    18.03,18.03,0,  !- X,Y,Z ==> Vertex 2 {m}
    0,18.03,0,  !- X,Y,Z ==> Vertex 3 {m}
    0,18.03,3.05;  !- X,Y,Z ==> Vertex 4 {m}

  BuildingSurface:Detailed,
    Zn001:Wall004,           !- Name
    Wall,                    !- Surface Type
    R13WALL,                 !- Construction Name
    ZONE ONE,                !- Zone Name
    ,                        !- Space Name
    Outdoors,                !- Outside Boundary Condition
    ,                        !- Outside Boundary Condition Object
    SunExposed,              !- Sun Exposure
    WindExposed,             !- Wind Exposure
    0.5000000,               !- View Factor to Ground
    4,                       !- Number of Vertices
    0,18.03,3.05,  !- X,Y,Z ==> Vertex 1 {m}
    0,18.03,0,  !- X,Y,Z ==> Vertex 2 {m}
    0,0,0,  !- X,Y,Z ==> Vertex 3 {m}
    0,0,3.05;  !- X,Y,Z ==> Vertex 4 {m}

  BuildingSurface:Detailed,
    Zn001:Flr001,            !- Name
    Floor,                   !- Surface Type
    FLOOR,                   !- Construction Name
    ZONE ONE,                !- Zone Name
    ,                        !- Space Name
    Adiabatic,               !- Outside Boundary Condition
    ,                        !- Outside Boundary Condition Object
    NoSun,                   !- Sun Exposure
    NoWind,                  !- Wind Exposure
    1.000000,                !- View Factor to Ground
    4,                       !- Number of Vertices
    18.03,0.000000,0.0,  !- X,Y,Z ==> Vertex 1 {m}
    0.000000,0.000000,0.0,  !- X,Y,Z ==> Vertex 2 {m}
    0.000000,18.03,0.0,  !- X,Y,Z ==> Vertex 3 {m}
    18.03,18.03,0.0;  !- X,Y,Z ==> Vertex 4 {m}

  BuildingSurface:Detailed,
    Zn001:Roof001,           !- Name
    Roof,                    !- Surface Type
    ROOF31,                  !- Construction Name
    ZONE ONE,                !- Zone Name
    ,                        !- Space Name
    Outdoors,                !- Outside Boundary Condition
    ,                        !- Outside Boundary Condition Object
    SunExposed,              !- Sun Exposure
    WindExposed,             !- Wind Exposure
    0,                       !- View Factor to Ground
    4,                       !- Number of Vertices
    0.000000,18.03,3.05,  !- X,Y,Z ==> Vertex 1 {m}
    0.000000,0.000000,3.05,  !- X,Y,Z ==> Vertex 2 {m}
    18.03,0.000000,3.05,  !- X,Y,Z ==> Vertex 3 {m}
    18.03,18.03,3.05;  !- X,Y,Z ==> Vertex 4 {m}

  InternalMass,
    ZONE ONE Furniture,      !- Name
    FurnitureConstruction,   !- Construction Name
    ZONE ONE,                !- Zone or ZoneList Name
    ,                        !- Space or SpaceList Name
    650.16;        !- Surface Area {m2}

  ScheduleTypeLimits,
    Fraction,                !- Name
    0.0,                     !- Lower Limit Value
    1.0,                     !- Upper Limit Value
    CONTINUOUS;              !- Numeric Type

  ScheduleTypeLimits,
    OnOff,                   !- Name
    0,                       !- Lower Limit Value
    1,                       !- Upper Limit Value
    DISCRETE;                !- Numeric Type

  ScheduleTypeLimits,
    Temperature,             !- Name
    -60,                     !- Lower Limit Value
    200,                     !- Upper Limit Value
    CONTINUOUS;              !- Numeric Type

  ScheduleTypeLimits,
    ControlType,             !- Name
    0,                       !- Lower Limit Value
    4,                       !- Upper Limit Value
    DISCRETE;                !- Numeric Type

  ScheduleTypeLimits,
    AnyNumber;               !- Name

  Schedule:Compact,
    ALWAYS_ON,               !- Name
    OnOff,                   !- Schedule Type Limits Name
    Through: 12/31,          !- Field 1
    For: AllDays,            !- Field 2
    Until: 24:00,1;          !- Field 3

  Schedule:Compact,
    OCCUPY,                  !- Name
    Fraction,                !- Schedule Type Limits Name
    Through: 12/31,          !- Field 1
    For: WeekDays SummerDesignDay,  !- Field 2
    Until: 07:00,1.0,        !- Field 3
    Until: 09:00,0.5,        !- Field 4
    Until: 17:00,0.25,       !- Field 5
    Until: 22:00,0.9,        !- Field 6
    Until: 24:00,1.0,        !- Field 7
    For: Weekends WinterDesignDay Holidays AllOtherDays,  !- Field 8
    Until: 24:00,1.0;        !- Field 9

  Schedule:Compact,
    HEAT SETPOINT,           !- Name
    Temperature,             !- Schedule Type Limits Name
    Through: 12/31,          !- Field 1
    For: AllDays,            !- Field 2
    Until: 24:00,21.944;     !- Field 3

  Schedule:Compact,
    COOL SETPOINT,           !- Name
    Temperature,             !- Schedule Type Limits Name
    Through: 12/31,          !- Field 1
    For: AllDays,            !- Field 2
    Until: 24:00,22.5;       !- Field 3

  Schedule:Compact,
    CONTROL TYPE,            !- Name
    ControlType,             !- Schedule Type Limits Name
    Through: 12/31,          !- Field 1
    For: AllDays,            !- Field 2
    Until: 24:00,4;          !- Field 3

  Schedule:Compact,
    FAN MODE,                !- Name
    AnyNumber,               !- Schedule Type Limits Name
    Through: 12/31,          !- Field 1
    For: AllDays,            !- Field 2
    Until: 24:00,0;          !- Field 3

  People,
    ZONE ONE People,         !- Name
    ZONE ONE,                !- Zone or ZoneList or Space or SpaceList Name
    OCCUPY,                  !- Number of People Schedule Name
    People,                  !- Number of People Calculation Method
    4,                       !- Number of People
    ,                        !- People per Floor Area {person/m2}
    ,                        !- Floor Area per Person {m2/person}
    0.3,                     !- Fraction Radiant
    ,                        !- Sensible Heat Fraction
    ActivityLevel;           !- Activity Level Schedule Name

  Schedule:Compact,
    ActivityLevel,           !- Name
    AnyNumber,               !- Schedule Type Limits Name
    Through: 12/31,          !- Field 1
    For: AllDays,            !- Field 2
    Until: 24:00,120;        !- Field 3

  Lights,
    ZONE ONE Lights,         !- Name
    ZONE ONE,                !- Zone or ZoneList or Space or SpaceList Name
    ALWAYS_ON,               !- Schedule Name
    Watts/Area,              !- Design Level Calculation Method
    ,                        !- Lighting Level {W}
    5.0,                     !- Watts per Floor Area {W/m2}
    ,                        !- Watts per Person {W/person}
    0.0,                     !- Return Air Fraction
    0.7,                     !- Fraction Radiant
    0.2,                     !- Fraction Visible
    0.0,                     !- Fraction Replaceable
    General;                 !- End-Use Subcategory

  ElectricEquipment,
    ZONE ONE Equip,          !- Name
    ZONE ONE,                !- Zone or ZoneList or Space or SpaceList Name
    ALWAYS_ON,               !- Schedule Name
    Watts/Area,              !- Design Level Calculation Method
    ,                        !- Design Level {W}
    5.0,                     !- Watts per Floor Area {W/m2}
    ,                        !- Watts per Person {W/person}
    0.0,                     !- Fraction Latent
    0.3,                     !- Fraction Radiant
    0.0,                     !- Fraction Lost
    General;                 !- End-Use Subcategory

  ZoneInfiltration:DesignFlowRate,
    ZONE ONE Infil,          !- Name
    ZONE ONE,                !- Zone or ZoneList Name
    ALWAYS_ON,               !- Schedule Name
    Flow/Zone,               !- Design Flow Rate Calculation Method
    0.137708,             !- Design Flow Rate {m3/s}
    ,                        !- Flow per Floor Area {m3/s-m2}
    ,                        !- Flow per Exterior Surface Area {m3/s-m2}
    ,                        !- Air Changes per Hour {1/hr}
    1.0,                     !- Constant Term Coefficient
    0.0,                     !- Temperature Term Coefficient
    0.0,                     !- Velocity Term Coefficient
    0.0;                     !- Velocity Squared Term Coefficient

  ZoneControl:Thermostat,
    ZONE ONE Thermostat,     !- Name
    ZONE ONE,                !- Zone or ZoneList Name
    CONTROL TYPE,            !- Control Type Schedule Name
    ThermostatSetpoint:DualSetpoint,  !- Control 1 Object Type
    DualSetPoint;            !- Control 1 Name

  ThermostatSetpoint:DualSetpoint,
    DualSetPoint,            !- Name
    HEAT SETPOINT,           !- Heating Setpoint Temperature Schedule Name
    COOL SETPOINT;           !- Cooling Setpoint Temperature Schedule Name

  ZoneHVAC:EquipmentList,
    ZONE ONE Equipment,      !- Name
    SequentialLoad,          !- Load Distribution Scheme
    ZoneHVAC:PackagedTerminalHeatPump,  !- Zone Equipment 1 Object Type
    ZONE ONE PTHP,           !- Zone Equipment 1 Name
    1,                       !- Zone Equipment 1 Cooling Sequence
    1,                       !- Zone Equipment 1 Heating or No-Load Sequence
    ,                        !- Zone Equipment 1 Sequential Cooling Fraction Schedule Name
    ;                        !- Zone Equipment 1 Sequential Heating Fraction Schedule Name

  ZoneHVAC:EquipmentConnections,
    ZONE ONE,                !- Zone Name
    ZONE ONE Equipment,      !- Zone Conditioning Equipment List Name
    ZONE ONE Inlets,         !- Zone Air Inlet Node or NodeList Name
    ZONE ONE Exhausts,       !- Zone Air Exhaust Node or NodeList Name
    ZONE ONE Air Node,       !- Zone Air Node Name
    ZONE ONE Return Node;    !- Zone Return Air Node or NodeList Name

  NodeList,
    ZONE ONE Inlets,         !- Name
    ZONE ONE PTHP Outlet;    !- Node 1 Name

  NodeList,
    ZONE ONE Exhausts,       !- Name
    ZONE ONE PTHP Inlet;     !- Node 1 Name

  NodeList,
    OutsideAirInletNodes,    !- Name
    ZONE ONE PTHP OA Inlet;  !- Node 1 Name

  OutdoorAir:NodeList,
    OutsideAirInletNodes;    !- Node or NodeList Name 1

  ZoneHVAC:PackagedTerminalHeatPump,
    ZONE ONE PTHP,           !- Name
    ALWAYS_ON,               !- Availability Schedule Name
    ZONE ONE PTHP Inlet,     !- Air Inlet Node Name
    ZONE ONE PTHP Outlet,    !- Air Outlet Node Name
    OutdoorAir:Mixer,        !- Outdoor Air Mixer Object Type
    ZONE ONE PTHP OA Mixer,  !- Outdoor Air Mixer Name
    0.944,                  !- Cooling Supply Air Flow Rate {m3/s}
    0.944,                  !- Heating Supply Air Flow Rate {m3/s}
    ,                        !- No Load Supply Air Flow Rate {m3/s}
    ,                        !- No Load Supply Air Flow Rate Control Set To Low Speed
    0.05,                    !- Cooling Outdoor Air Flow Rate {m3/s}
    0.05,                    !- Heating Outdoor Air Flow Rate {m3/s}
    0.0,                     !- No Load Outdoor Air Flow Rate {m3/s}
    Fan:SystemModel,         !- Supply Air Fan Object Type
    ZONE ONE PTHP Fan,       !- Supply Air Fan Name
    Coil:Heating:DX:SingleSpeed,  !- Heating Coil Object Type
    Carrier 50EZ060 Heating, !- Heating Coil Name
    0.001,                   !- Heating Convergence Tolerance {dimensionless}
    Coil:Cooling:DX:SingleSpeed,  !- Cooling Coil Object Type
    Carrier 50EZ060 Cooling, !- Cooling Coil Name
    0.001,                   !- Cooling Convergence Tolerance {dimensionless}
    Coil:Heating:Electric,   !- Supplemental Heating Coil Object Type
    ZONE ONE Sup Heater,     !- Supplemental Heating Coil Name
    50.0,                    !- Maximum Supply Air Temperature from Supplemental Heater {C}
    21.0,                    !- Maximum Outdoor Dry-Bulb Temperature for Supplemental Heater Operation {C}
    BlowThrough,             !- Fan Placement
    FAN MODE;                !- Supply Air Fan Operating Mode Schedule Name

  OutdoorAir:Mixer,
    ZONE ONE PTHP OA Mixer,  !- Name
    ZONE ONE PTHP Mixer Out, !- Mixed Air Node Name
    ZONE ONE PTHP OA Inlet,  !- Outdoor Air Stream Node Name
    ZONE ONE PTHP Relief,    !- Relief Air Stream Node Name
    ZONE ONE PTHP Inlet;     !- Return Air Stream Node Name

  Fan:SystemModel,
    ZONE ONE PTHP Fan,       !- Name
    ALWAYS_ON,               !- Availability Schedule Name
    ZONE ONE PTHP Mixer Out, !- Air Inlet Node Name
    ZONE ONE PTHP Fan Out,   !- Air Outlet Node Name
    0.944,                  !- Design Maximum Air Flow Rate {m3/s}
    Discrete,                !- Speed Control Method
    0.0,                     !- Electric Power Minimum Flow Rate Fraction
    75.0,                    !- Design Pressure Rise {Pa}
    0.9,                     !- Motor Efficiency
    1.0,                     !- Motor In Air Stream Fraction
    AUTOSIZE,                !- Design Electric Power Consumption {W}
    TotalEfficiencyAndPressure,  !- Design Power Sizing Method
    ,                        !- Electric Power Per Unit Flow Rate {W/(m3/s)}
    ,                        !- Electric Power Per Unit Flow Rate Per Unit Pressure {W/((m3/s)-Pa)}
    0.5,                     !- Fan Total Efficiency
    PTHPFanPowerCurve;       !- Electric Power Function of Flow Fraction Curve Name

  Curve:Cubic,
    PTHPFanPowerCurve,       !- Name
    0.0,                     !- Coefficient1 Constant
    0.027411,                !- Coefficient2 x
    0.008740,                !- Coefficient3 x**2
    0.969563,                !- Coefficient4 x**3
    0.5,                     !- Minimum Value of x
    1.5,                     !- Maximum Value of x
    0.01,                    !- Minimum Curve Output
    1.5;                     !- Maximum Curve Output

! Manufacturer = Carrier, Model Line = EZ (Heat pump -- 50EZ060)
! From EnergyPlus DataSets/RooftopPackagedHeatPump.idf
! Curve CapFTemp/CapFFF names MATCH coil CapFTemp/CapFFF references

  Coil:Cooling:DX:SingleSpeed,
    Carrier 50EZ060 Cooling, !- Name
    ALWAYS_ON,               !- Availability Schedule Name
    17716.3372,              !- Gross Rated Total Cooling Capacity {W}
    0.75,                    !- Gross Rated Sensible Heat Ratio
    4.05,                    !- Gross Rated Cooling COP {W/W}
    0.944,                  !- Rated Air Flow Rate {m3/s}
    ,                        !- 2017 Rated Evaporator Fan Power Per Volume Flow Rate {W/(m3/s)}
    ,                        !- 2023 Rated Evaporator Fan Power Per Volume Flow Rate {W/(m3/s)}
    ZONE ONE PTHP Fan Out,   !- Air Inlet Node Name
    ZONE ONE PTHP Cool Out,  !- Air Outlet Node Name
    Carrier 50EZ060 Cooling CapFTemp,  !- Total Cooling Capacity Function of Temperature Curve Name
    Carrier 50EZ060 Cooling CapFFF,  !- Total Cooling Capacity Function of Flow Fraction Curve Name
    Carrier 50EZ060 Cooling EIRFTemp,  !- Energy Input Ratio Function of Temperature Curve Name
    Carrier 50EZ060 Cooling EIRFFF,  !- Energy Input Ratio Function of Flow Fraction Curve Name
    Carrier 50EZ060 Cooling PLFFPLR;  !- Part Load Fraction Correlation Curve Name

  Curve:Biquadratic,
    Carrier 50EZ060 Cooling CapFTemp,  !- Name
    1.5925938003,            !- Coefficient1 Constant
    -0.0627877976,           !- Coefficient2 x
    0.0027564091,            !- Coefficient3 x**2
    0.0000704,               !- Coefficient4 y
    -0.0000564877,           !- Coefficient5 y**2
    -0.0005100941,           !- Coefficient6 x*y
    13.89,                   !- Minimum Value of x
    22.22,                   !- Maximum Value of x
    23.89,                   !- Minimum Value of y
    51.67,                   !- Maximum Value of y
    0.7064,                  !- Minimum Curve Output
    1.2447,                  !- Maximum Curve Output
    Temperature,             !- Input Unit Type for X
    Temperature,             !- Input Unit Type for Y
    Dimensionless;           !- Output Unit Type

  Curve:Biquadratic,
    Carrier 50EZ060 Cooling EIRFTemp,  !- Name
    -0.1136633245,           !- Coefficient1 Constant
    0.102662298,             !- Coefficient2 x
    -0.0028732875,           !- Coefficient3 x**2
    -0.0180276065,           !- Coefficient4 y
    0.0009137924,            !- Coefficient5 y**2
    -0.0004182267,           !- Coefficient6 x*y
    13.89,                   !- Minimum Value of x
    22.22,                   !- Maximum Value of x
    23.89,                   !- Minimum Value of y
    51.67,                   !- Maximum Value of y
    0.6324,                  !- Minimum Curve Output
    2.0053,                  !- Maximum Curve Output
    Temperature,             !- Input Unit Type for X
    Temperature,             !- Input Unit Type for Y
    Dimensionless;           !- Output Unit Type

  Curve:Quadratic,
    Carrier 50EZ060 Cooling CapFFF,  !- Name
    0.7571598857,            !- Coefficient1 Constant
    0.3751780512,            !- Coefficient2 x
    -0.1323379369,           !- Coefficient3 x**2
    0.875,                   !- Minimum Value of x
    1.125,                   !- Maximum Value of x
    0.9841,                  !- Minimum Curve Output
    1.0117,                  !- Maximum Curve Output
    Dimensionless,           !- Input Unit Type for X
    Dimensionless;           !- Output Unit Type

  Curve:Quadratic,
    Carrier 50EZ060 Cooling EIRFFF,  !- Name
    0.9887558412,            !- Coefficient1 Constant
    -0.0409636114,           !- Coefficient2 x
    0.0522077702,            !- Coefficient3 x**2
    0.875,                   !- Minimum Value of x
    1.125,                   !- Maximum Value of x
    0.9929,                  !- Minimum Curve Output
    1.0087,                  !- Maximum Curve Output
    Dimensionless,           !- Input Unit Type for X
    Dimensionless;           !- Output Unit Type

  Curve:Quadratic,
    Carrier 50EZ060 Cooling PLFFPLR,  !- Name
    0.85,                    !- Coefficient1 Constant
    0.15,                    !- Coefficient2 x
    0.0,                     !- Coefficient3 x**2
    0.0,                     !- Minimum Value of x
    1.0;                     !- Maximum Value of x

  Coil:Heating:DX:SingleSpeed,
    Carrier 50EZ060 Heating, !- Name
    ALWAYS_ON,               !- Availability Schedule Name
    17303.1085,              !- Gross Rated Heating Capacity {W}
    4.5,                     !- Gross Rated Heating COP {W/W}
    0.944,                  !- Rated Air Flow Rate {m3/s}
    ,                        !- 2017 Rated Supply Fan Power Per Volume Flow Rate {W/(m3/s)}
    ,                        !- 2023 Rated Supply Fan Power Per Volume Flow Rate {W/(m3/s)}
    ZONE ONE PTHP Cool Out,  !- Air Inlet Node Name
    ZONE ONE PTHP Heat Out,  !- Air Outlet Node Name
    Carrier 50EZ060 Heating CapFTemp,  !- Heating Capacity Function of Temperature Curve Name
    Carrier 50EZ060 Heating CapFFF,  !- Heating Capacity Function of Flow Fraction Curve Name
    Carrier 50EZ060 Heating EIRFTemp,  !- Energy Input Ratio Function of Temperature Curve Name
    Carrier 50EZ060 Heating EIRFFF,  !- Energy Input Ratio Function of Flow Fraction Curve Name
    Carrier 50EZ060 Heating PLFFPLR,  !- Part Load Fraction Correlation Curve Name
    ,                        !- Defrost Energy Input Ratio Function of Temperature Curve Name
    -5.0,                    !- Minimum Outdoor Dry-Bulb Temperature for Compressor Operation {C}
    ,                        !- Outdoor Dry-Bulb Temperature to Turn On Compressor {C}
    5.0,                     !- Maximum Outdoor Dry-Bulb Temperature for Defrost Operation {C}
    200.0,                   !- Crankcase Heater Capacity {W}
    ,                        !- Crankcase Heater Capacity Function of Temperature Curve Name
    10.0,                    !- Maximum Outdoor Dry-Bulb Temperature for Crankcase Heater Operation {C}
    Resistive,               !- Defrost Strategy
    Timed,                   !- Defrost Control
    0.166667,                !- Defrost Time Period Fraction
    10000;                   !- Resistive Defrost Heater Capacity {W}

  Curve:Biquadratic,
    Carrier 50EZ060 Heating CapFTemp,  !- Name
    0.8236855295,            !- Coefficient1 Constant
    -0.0007774239,           !- Coefficient2 x
    -0.0000576211,           !- Coefficient3 x**2
    0.0238675778,            !- Coefficient4 y
    0.0002866082,            !- Coefficient5 y**2
    -0.0000022314,           !- Coefficient6 x*y
    18.33,                   !- Minimum Value of x
    23.89,                   !- Maximum Value of x
    -23.33,                  !- Minimum Value of y
    15.56,                   !- Maximum Value of y
    0.3425,                  !- Minimum Curve Output
    1.19,                    !- Maximum Curve Output
    Temperature,             !- Input Unit Type for X
    Temperature,             !- Input Unit Type for Y
    Dimensionless;           !- Output Unit Type

  Curve:Biquadratic,
    Carrier 50EZ060 Heating EIRFTemp,  !- Name
    0.6932423824,            !- Coefficient1 Constant
    0.0146398474,            !- Coefficient2 x
    0.0004670338,            !- Coefficient3 x**2
    -0.0044246906,           !- Coefficient4 y
    0.0005574856,            !- Coefficient5 y**2
    -0.0012067286,           !- Coefficient6 x*y
    18.33,                   !- Minimum Value of x
    23.89,                   !- Maximum Value of x
    -23.33,                  !- Minimum Value of y
    15.56,                   !- Maximum Value of y
    0.8505,                  !- Minimum Curve Output
    2.4664,                  !- Maximum Curve Output
    Temperature,             !- Input Unit Type for X
    Temperature,             !- Input Unit Type for Y
    Dimensionless;           !- Output Unit Type

  Curve:Quadratic,
    Carrier 50EZ060 Heating CapFFF,  !- Name
    0.7426251918,            !- Coefficient1 Constant
    0.4660387748,            !- Coefficient2 x
    -0.2086639666,           !- Coefficient3 x**2
    0.875,                   !- Minimum Value of x
    1.125,                   !- Maximum Value of x
    0.9907,                  !- Minimum Curve Output
    1.0028,                  !- Maximum Curve Output
    Dimensionless,           !- Input Unit Type for X
    Dimensionless;           !- Output Unit Type

  Curve:Quadratic,
    Carrier 50EZ060 Heating EIRFFF,  !- Name
    1.7678434868,            !- Coefficient1 Constant
    -1.3737025624,           !- Coefficient2 x
    0.6058590756,            !- Coefficient3 x**2
    0.875,                   !- Minimum Value of x
    1.125,                   !- Maximum Value of x
    0.9892,                  !- Minimum Curve Output
    1.0297,                  !- Maximum Curve Output
    Dimensionless,           !- Input Unit Type for X
    Dimensionless;           !- Output Unit Type

  Curve:Quadratic,
    Carrier 50EZ060 Heating PLFFPLR,  !- Name
    0.85,                    !- Coefficient1 Constant
    0.15,                    !- Coefficient2 x
    0.0,                     !- Coefficient3 x**2
    0.0,                     !- Minimum Value of x
    1.0;                     !- Maximum Value of x

  Coil:Heating:Electric,
    ZONE ONE Sup Heater,     !- Name
    ALWAYS_ON,               !- Availability Schedule Name
    1.0,                     !- Efficiency
    10000.0,                 !- Nominal Capacity {W}
    ZONE ONE PTHP Heat Out,  !- Air Inlet Node Name
    ZONE ONE PTHP Outlet;    !- Air Outlet Node Name

  Output:Variable,*,Zone Mean Air Temperature,Timestep;

  Output:Variable,*,Zone Ideal Loads Supply Total Heating Rate,Timestep;

  Output:Variable,*,Zone Ideal Loads Supply Total Cooling Rate,Timestep;

  Output:Variable,*,Zone Air System Sensible Heating Rate,Timestep;

  Output:Variable,*,Zone Air System Sensible Cooling Rate,Timestep;

  Output:Meter,Electricity:Facility,Timestep;

  Output:Meter,Electricity:HVAC,Timestep;

  Output:VariableDictionary,IDF;

  OutputControl:Table:Style,
    HTML;                    !- Column Separator

  Output:Table:SummaryReports,
    AllSummary;              !- Report 1 Name
