!- Windows Line endings 

VERSION,
    26.1;                     !- Version Identifier

SIMULATIONCONTROL,
    Yes,                      !- Do Zone Sizing Calculation
    Yes,                      !- Do System Sizing Calculation
    No,                       !- Do Plant Sizing Calculation
    Yes,                      !- Run Simulation for Sizing Periods
    Yes,                      !- Run Simulation for Weather File Run Periods
    No,                       !- Do HVAC Sizing Simulation for Sizing Periods
    1;                        !- Maximum Number of HVAC Sizing Simulation Passes

BUILDING,
    Creekside_ES,             !- Name
    0,                        !- North Axis
    Suburbs,                  !- Terrain
    0.04,                     !- Loads Convergence Tolerance Value
    0.4,                      !- Temperature Convergence Tolerance Value
    FullInteriorAndExterior,    !- Solar Distribution
    25,                       !- Maximum Number of Warmup Days
    6;                        !- Minimum Number of Warmup Days

SURFACECONVECTIONALGORITHM:INSIDE,
    TARP;                     !- Algorithm

SURFACECONVECTIONALGORITHM:OUTSIDE,
    DOE-2;                    !- Algorithm

HEATBALANCEALGORITHM,
    ConductionTransferFunction,    !- Algorithm
    200,                      !- Surface Temperature Upper Limit
    0.1,                      !- Minimum Surface Convection Heat Transfer Coefficient Value
    1000;                     !- Maximum Surface Convection Heat Transfer Coefficient Value

TIMESTEP,
    4;                        !- Number of Timesteps per Hour

SITE:LOCATION,
    Sun_Prairie_WI,           !- Name
    43.16521,                 !- Latitude
    -89.25408,                !- Longitude
    -6,                       !- Time Zone
    261,                      !- Elevation
    No;                       !- Keep Site Location Information

SIZINGPERIOD:DESIGNDAY,
    Madison Winter,           !- Name
    1,                        !- Month
    21,                       !- Day of Month
    WinterDesignDay,          !- Day Type
    -17.8,                    !- Maximum DryBulb Temperature
    0,                        !- Daily DryBulb Temperature Range
    DefaultMultipliers,       !- DryBulb Temperature Range Modifier Type
    ,                         !- DryBulb Temperature Range Modifier Day Schedule Name
    Wetbulb,                  !- Humidity Condition Type
    -17.8,                    !- Wetbulb or DewPoint at Maximum DryBulb
    ,                         !- Humidity Condition Day Schedule Name
    ,                         !- Humidity Ratio at Maximum DryBulb
    ,                         !- Enthalpy at Maximum DryBulb
    ,                         !- Daily WetBulb Temperature Range
    101325,                   !- Barometric Pressure
    3.5,                      !- Wind Speed
    270,                      !- Wind Direction
    No,                       !- Rain Indicator
    No,                       !- Snow Indicator
    No,                       !- Daylight Saving Time Indicator
    ASHRAEClearSky,           !- Solar Model Indicator
    ,                         !- Beam Solar Day Schedule Name
    ,                         !- Diffuse Solar Day Schedule Name
    0,                        !- ASHRAE Clear Sky Optical Depth for Beam Irradiance taub
    0,                        !- ASHRAE Clear Sky Optical Depth for Diffuse Irradiance taud
    0,                        !- Sky Clearness
    ,                         !- Maximum Number Warmup Days
    FullResetAtBeginEnvironment;    !- Begin Environment Reset Mode

SIZINGPERIOD:DESIGNDAY,
    Madison Summer,           !- Name
    7,                        !- Month
    21,                       !- Day of Month
    SummerDesignDay,          !- Day Type
    33,                       !- Maximum DryBulb Temperature
    10,                       !- Daily DryBulb Temperature Range
    DefaultMultipliers,       !- DryBulb Temperature Range Modifier Type
    ,                         !- DryBulb Temperature Range Modifier Day Schedule Name
    Wetbulb,                  !- Humidity Condition Type
    23,                       !- Wetbulb or DewPoint at Maximum DryBulb
    ,                         !- Humidity Condition Day Schedule Name
    ,                         !- Humidity Ratio at Maximum DryBulb
    ,                         !- Enthalpy at Maximum DryBulb
    ,                         !- Daily WetBulb Temperature Range
    101325,                   !- Barometric Pressure
    4,                        !- Wind Speed
    270,                      !- Wind Direction
    No,                       !- Rain Indicator
    No,                       !- Snow Indicator
    No,                       !- Daylight Saving Time Indicator
    ASHRAEClearSky,           !- Solar Model Indicator
    ,                         !- Beam Solar Day Schedule Name
    ,                         !- Diffuse Solar Day Schedule Name
    0,                        !- ASHRAE Clear Sky Optical Depth for Beam Irradiance taub
    0,                        !- ASHRAE Clear Sky Optical Depth for Diffuse Irradiance taud
    1,                        !- Sky Clearness
    ,                         !- Maximum Number Warmup Days
    FullResetAtBeginEnvironment;    !- Begin Environment Reset Mode

RUNPERIOD,
    CalibrationWindow,        !- Name
    8,                        !- Begin Month
    1,                        !- Begin Day of Month
    2025,                     !- Begin Year
    7,                        !- End Month
    2,                        !- End Day of Month
    2026,                     !- End Year
    Thursday,                 !- Day of Week for Start Day
    Yes,                      !- Use Weather File Holidays and Special Days
    Yes,                      !- Use Weather File Daylight Saving Period
    No,                       !- Apply Weekend Holiday Rule
    Yes,                      !- Use Weather File Rain Indicators
    Yes,                      !- Use Weather File Snow Indicators
    No,                       !- Treat Weather as Actual
    Hour24;                   !- First Hour Interpolation Starting Values

SCHEDULETYPELIMITS,
    Any Number,               !- Name
    ,                         !- Lower Limit Value
    ,                         !- Upper Limit Value
    ,                         !- Numeric Type
    Dimensionless;            !- Unit Type

SCHEDULETYPELIMITS,
    Fraction,                 !- Name
    0,                        !- Lower Limit Value
    1,                        !- Upper Limit Value
    CONTINUOUS,               !- Numeric Type
    Dimensionless;            !- Unit Type

SCHEDULETYPELIMITS,
    Temperature,              !- Name
    -60,                      !- Lower Limit Value
    200,                      !- Upper Limit Value
    CONTINUOUS,               !- Numeric Type
    Dimensionless;            !- Unit Type

SCHEDULETYPELIMITS,
    Control Type,             !- Name
    0,                        !- Lower Limit Value
    4,                        !- Upper Limit Value
    DISCRETE,                 !- Numeric Type
    Dimensionless;            !- Unit Type

SCHEDULE:COMPACT,
    SCH_Occ_Class,            !- Name
    Fraction,                 !- Schedule Type Limits Name
    Through: 12/31,           !- Field 1
    For: Weekends Holidays,    !- Field 2
    Until: 24:00,             !- Field 3
    0.05,                     !- Field 4
    For: Thursday,            !- Field 5
    Until: 07:00,             !- Field 6
    0.05,                     !- Field 7
    Until: 07:30,             !- Field 8
    0.2,                      !- Field 9
    Until: 08:00,             !- Field 10
    0.9,                      !- Field 11
    Until: 13:30,             !- Field 12
    1.0,                      !- Field 13
    Until: 15:00,             !- Field 14
    0.2,                      !- Field 15
    Until: 18:00,             !- Field 16
    0.08,                     !- Field 17
    Until: 24:00,             !- Field 18
    0.05,                     !- Field 19
    For: Monday Tuesday Wednesday Friday,    !- Field 20
    Until: 07:00,             !- Field 21
    0.05,                     !- Field 22
    Until: 07:30,             !- Field 23
    0.2,                      !- Field 24
    Until: 08:00,             !- Field 25
    0.9,                      !- Field 26
    Until: 14:40,             !- Field 27
    1.0,                      !- Field 28
    Until: 15:30,             !- Field 29
    0.25,                     !- Field 30
    Until: 18:00,             !- Field 31
    0.1,                      !- Field 32
    Until: 24:00,             !- Field 33
    0.05;                     !- Field 34

SCHEDULE:COMPACT,
    SCH_Occ_Library,          !- Name
    Fraction,                 !- Schedule Type Limits Name
    Through: 12/31,           !- Field 1
    For: Weekends Holidays,    !- Field 2
    Until: 24:00,             !- Field 3
    0.02,                     !- Field 4
    For: Thursday,            !- Field 5
    Until: 07:30,             !- Field 6
    0.05,                     !- Field 7
    Until: 13:30,             !- Field 8
    0.55,                     !- Field 9
    Until: 15:00,             !- Field 10
    0.15,                     !- Field 11
    Until: 24:00,             !- Field 12
    0.02,                     !- Field 13
    For: Monday Tuesday Wednesday Friday,    !- Field 14
    Until: 07:30,             !- Field 15
    0.05,                     !- Field 16
    Until: 14:40,             !- Field 17
    0.55,                     !- Field 18
    Until: 15:30,             !- Field 19
    0.15,                     !- Field 20
    Until: 24:00,             !- Field 21
    0.02;                     !- Field 22

SCHEDULE:COMPACT,
    SCH_Occ_Cafe,             !- Name
    Fraction,                 !- Schedule Type Limits Name
    Through: 12/31,           !- Field 1
    For: Weekends Holidays,    !- Field 2
    Until: 24:00,             !- Field 3
    0.02,                     !- Field 4
    For: Thursday,            !- Field 5
    Until: 07:00,             !- Field 6
    0.05,                     !- Field 7
    Until: 10:45,             !- Field 8
    0.08,                     !- Field 9
    Until: 11:00,             !- Field 10
    0.25,                     !- Field 11
    Until: 13:00,             !- Field 12
    0.95,                     !- Field 13
    Until: 13:30,             !- Field 14
    0.2,                      !- Field 15
    Until: 15:00,             !- Field 16
    0.05,                     !- Field 17
    Until: 24:00,             !- Field 18
    0.02,                     !- Field 19
    For: Monday Tuesday Wednesday Friday,    !- Field 20
    Until: 07:00,             !- Field 21
    0.05,                     !- Field 22
    Until: 10:45,             !- Field 23
    0.08,                     !- Field 24
    Until: 11:00,             !- Field 25
    0.25,                     !- Field 26
    Until: 13:00,             !- Field 27
    0.95,                     !- Field 28
    Until: 14:40,             !- Field 29
    0.15,                     !- Field 30
    Until: 15:30,             !- Field 31
    0.05,                     !- Field 32
    Until: 24:00,             !- Field 33
    0.02;                     !- Field 34

SCHEDULE:COMPACT,
    SCH_Occ_Gym,              !- Name
    Fraction,                 !- Schedule Type Limits Name
    Through: 12/31,           !- Field 1
    For: Weekends Holidays,    !- Field 2
    Until: 24:00,             !- Field 3
    0.02,                     !- Field 4
    For: Thursday,            !- Field 5
    Until: 08:00,             !- Field 6
    0.05,                     !- Field 7
    Until: 09:00,             !- Field 8
    0.7,                      !- Field 9
    Until: 10:00,             !- Field 10
    0.15,                     !- Field 11
    Until: 11:00,             !- Field 12
    0.7,                      !- Field 13
    Until: 12:00,             !- Field 14
    0.15,                     !- Field 15
    Until: 13:00,             !- Field 16
    0.5,                      !- Field 17
    Until: 13:30,             !- Field 18
    0.1,                      !- Field 19
    Until: 24:00,             !- Field 20
    0.02,                     !- Field 21
    For: Monday Tuesday Wednesday Friday,    !- Field 22
    Until: 08:00,             !- Field 23
    0.05,                     !- Field 24
    Until: 09:00,             !- Field 25
    0.7,                      !- Field 26
    Until: 10:00,             !- Field 27
    0.15,                     !- Field 28
    Until: 11:00,             !- Field 29
    0.7,                      !- Field 30
    Until: 12:00,             !- Field 31
    0.15,                     !- Field 32
    Until: 13:00,             !- Field 33
    0.7,                      !- Field 34
    Until: 14:00,             !- Field 35
    0.15,                     !- Field 36
    Until: 14:40,             !- Field 37
    0.4,                      !- Field 38
    Until: 15:30,             !- Field 39
    0.08,                     !- Field 40
    Until: 24:00,             !- Field 41
    0.02;                     !- Field 42

SCHEDULE:COMPACT,
    SCH_Lights,               !- Name
    Fraction,                 !- Schedule Type Limits Name
    Through: 12/31,           !- Field 1
    For: Weekends Holidays,    !- Field 2
    Until: 24:00,             !- Field 3
    0.1,                      !- Field 4
    For: Thursday,            !- Field 5
    Until: 06:45,             !- Field 6
    0.1,                      !- Field 7
    Until: 07:30,             !- Field 8
    0.5,                      !- Field 9
    Until: 13:30,             !- Field 10
    0.9,                      !- Field 11
    Until: 18:00,             !- Field 12
    0.25,                     !- Field 13
    Until: 24:00,             !- Field 14
    0.1,                      !- Field 15
    For: Monday Tuesday Wednesday Friday,    !- Field 16
    Until: 06:45,             !- Field 17
    0.1,                      !- Field 18
    Until: 07:30,             !- Field 19
    0.5,                      !- Field 20
    Until: 15:00,             !- Field 21
    0.9,                      !- Field 22
    Until: 18:00,             !- Field 23
    0.3,                      !- Field 24
    Until: 24:00,             !- Field 25
    0.1;                      !- Field 26

SCHEDULE:COMPACT,
    SCH_Lights_Gym,           !- Name
    Fraction,                 !- Schedule Type Limits Name
    Through: 12/31,           !- Field 1
    For: Weekends Holidays,    !- Field 2
    Until: 24:00,             !- Field 3
    0.05,                     !- Field 4
    For: Thursday,            !- Field 5
    Until: 07:30,             !- Field 6
    0.05,                     !- Field 7
    Until: 13:30,             !- Field 8
    0.75,                     !- Field 9
    Until: 15:00,             !- Field 10
    0.15,                     !- Field 11
    Until: 24:00,             !- Field 12
    0.05,                     !- Field 13
    For: Monday Tuesday Wednesday Friday,    !- Field 14
    Until: 07:30,             !- Field 15
    0.05,                     !- Field 16
    Until: 15:00,             !- Field 17
    0.75,                     !- Field 18
    Until: 18:00,             !- Field 19
    0.15,                     !- Field 20
    Until: 24:00,             !- Field 21
    0.05;                     !- Field 22

SCHEDULE:COMPACT,
    SCH_Equip,                !- Name
    Fraction,                 !- Schedule Type Limits Name
    Through: 12/31,           !- Field 1
    For: Weekends Holidays,    !- Field 2
    Until: 24:00,             !- Field 3
    0.15,                     !- Field 4
    For: Thursday,            !- Field 5
    Until: 07:00,             !- Field 6
    0.15,                     !- Field 7
    Until: 13:30,             !- Field 8
    0.7,                      !- Field 9
    Until: 18:00,             !- Field 10
    0.25,                     !- Field 11
    Until: 24:00,             !- Field 12
    0.15,                     !- Field 13
    For: Monday Tuesday Wednesday Friday,    !- Field 14
    Until: 07:00,             !- Field 15
    0.15,                     !- Field 16
    Until: 15:00,             !- Field 17
    0.7,                      !- Field 18
    Until: 18:00,             !- Field 19
    0.3,                      !- Field 20
    Until: 24:00,             !- Field 21
    0.15;                     !- Field 22

SCHEDULE:COMPACT,
    SCH_Kitchen,              !- Name
    Fraction,                 !- Schedule Type Limits Name
    Through: 12/31,           !- Field 1
    For: Weekends Holidays,    !- Field 2
    Until: 24:00,             !- Field 3
    0.05,                     !- Field 4
    For: Thursday,            !- Field 5
    Until: 06:00,             !- Field 6
    0.05,                     !- Field 7
    Until: 13:30,             !- Field 8
    0.85,                     !- Field 9
    Until: 15:00,             !- Field 10
    0.15,                     !- Field 11
    Until: 24:00,             !- Field 12
    0.05,                     !- Field 13
    For: Monday Tuesday Wednesday Friday,    !- Field 14
    Until: 06:00,             !- Field 15
    0.05,                     !- Field 16
    Until: 13:30,             !- Field 17
    0.85,                     !- Field 18
    Until: 15:00,             !- Field 19
    0.2,                      !- Field 20
    Until: 24:00,             !- Field 21
    0.05;                     !- Field 22

SCHEDULE:COMPACT,
    SCH_Infil,                !- Name
    Fraction,                 !- Schedule Type Limits Name
    Through: 12/31,           !- Field 1
    For: AllDays,             !- Field 2
    Until: 07:00,             !- Field 3
    1.0,                      !- Field 4
    Until: 15:30,             !- Field 5
    0.5,                      !- Field 6
    Until: 24:00,             !- Field 7
    1.0;                      !- Field 8

SCHEDULE:COMPACT,
    SCH_HVAC,                 !- Name
    Fraction,                 !- Schedule Type Limits Name
    Through: 12/31,           !- Field 1
    For: Weekends Holidays,    !- Field 2
    Until: 24:00,             !- Field 3
    0.0,                      !- Field 4
    For: Thursday,            !- Field 5
    Until: 05:30,             !- Field 6
    0.0,                      !- Field 7
    Until: 14:00,             !- Field 8
    1.0,                      !- Field 9
    Until: 24:00,             !- Field 10
    0.0,                      !- Field 11
    For: Monday Tuesday Wednesday Friday,    !- Field 12
    Until: 05:30,             !- Field 13
    0.0,                      !- Field 14
    Until: 15:30,             !- Field 15
    1.0,                      !- Field 16
    Until: 24:00,             !- Field 17
    0.0;                      !- Field 18

SCHEDULE:COMPACT,
    SCH_AlwaysOn,             !- Name
    Fraction,                 !- Schedule Type Limits Name
    Through: 12/31,           !- Field 1
    For: AllDays,             !- Field 2
    Until: 24:00,             !- Field 3
    1.0;                      !- Field 4

SCHEDULE:COMPACT,
    SCH_ControlType,          !- Name
    Control Type,             !- Schedule Type Limits Name
    Through: 12/31,           !- Field 1
    For: AllDays,             !- Field 2
    Until: 24:00,             !- Field 3
    4;                        !- Field 4

SCHEDULE:COMPACT,
    SCH_HtgSP,                !- Name
    Temperature,              !- Schedule Type Limits Name
    Through: 12/31,           !- Field 1
    For: Weekends Holidays,    !- Field 2
    Until: 24:00,             !- Field 3
    18.33,                    !- Field 4
    For: Thursday,            !- Field 5
    Until: 06:45,             !- Field 6
    18.33,                    !- Field 7
    Until: 14:00,             !- Field 8
    20.00,                    !- Field 9
    Until: 24:00,             !- Field 10
    18.33,                    !- Field 11
    For: Monday Tuesday Wednesday Friday,    !- Field 12
    Until: 06:45,             !- Field 13
    18.33,                    !- Field 14
    Until: 15:30,             !- Field 15
    20.00,                    !- Field 16
    Until: 24:00,             !- Field 17
    18.33;                    !- Field 18

SCHEDULE:COMPACT,
    SCH_ClgSP,                !- Name
    Temperature,              !- Schedule Type Limits Name
    Through: 12/31,           !- Field 1
    For: Weekends Holidays,    !- Field 2
    Until: 24:00,             !- Field 3
    29.44,                    !- Field 4
    For: Thursday,            !- Field 5
    Until: 06:45,             !- Field 6
    29.44,                    !- Field 7
    Until: 14:00,             !- Field 8
    23.33,                    !- Field 9
    Until: 24:00,             !- Field 10
    29.44,                    !- Field 11
    For: Monday Tuesday Wednesday Friday,    !- Field 12
    Until: 06:45,             !- Field 13
    29.44,                    !- Field 14
    Until: 15:30,             !- Field 15
    23.33,                    !- Field 16
    Until: 24:00,             !- Field 17
    29.44;                    !- Field 18

SCHEDULE:COMPACT,
    SCH_Activity,             !- Name
    Any Number,               !- Schedule Type Limits Name
    Through: 12/31,           !- Field 1
    For: AllDays,             !- Field 2
    Until: 24:00,             !- Field 3
    120;                      !- Field 4

SCHEDULE:COMPACT,
    SCH_Activity_Gym,         !- Name
    Any Number,               !- Schedule Type Limits Name
    Through: 12/31,           !- Field 1
    For: AllDays,             !- Field 2
    Until: 24:00,             !- Field 3
    250;                      !- Field 4

SCHEDULE:COMPACT,
    SCH_Activity_Cafe,        !- Name
    Any Number,               !- Schedule Type Limits Name
    Through: 12/31,           !- Field 1
    For: AllDays,             !- Field 2
    Until: 24:00,             !- Field 3
    130;                      !- Field 4

MATERIAL,
    Mat_Conc,                 !- Name
    MediumRough,              !- Roughness
    0.1,                      !- Thickness
    1.4,                      !- Conductivity
    2100,                     !- Density
    880,                      !- Specific Heat
    0.9,                      !- Thermal Absorptance
    0.7,                      !- Solar Absorptance
    0.7;                      !- Visible Absorptance

MATERIAL,
    Mat_Insul,                !- Name
    MediumRough,              !- Roughness
    0.1,                      !- Thickness
    0.04,                     !- Conductivity
    30,                       !- Density
    1200,                     !- Specific Heat
    0.9,                      !- Thermal Absorptance
    0.7,                      !- Solar Absorptance
    0.7;                      !- Visible Absorptance

MATERIAL,
    Mat_Gyp,                  !- Name
    MediumSmooth,             !- Roughness
    0.012,                    !- Thickness
    0.16,                     !- Conductivity
    800,                      !- Density
    1090,                     !- Specific Heat
    0.9,                      !- Thermal Absorptance
    0.7,                      !- Solar Absorptance
    0.7;                      !- Visible Absorptance

MATERIAL,
    Mat_RoofIns,              !- Name
    MediumRough,              !- Roughness
    0.15,                     !- Thickness
    0.04,                     !- Conductivity
    30,                       !- Density
    1200,                     !- Specific Heat
    0.9,                      !- Thermal Absorptance
    0.7,                      !- Solar Absorptance
    0.7;                      !- Visible Absorptance

MATERIAL,
    Mat_RoofDeck,             !- Name
    MediumRough,              !- Roughness
    0.02,                     !- Thickness
    0.14,                     !- Conductivity
    530,                      !- Density
    900,                      !- Specific Heat
    0.9,                      !- Thermal Absorptance
    0.7,                      !- Solar Absorptance
    0.7;                      !- Visible Absorptance

WINDOWMATERIAL:SIMPLEGLAZINGSYSTEM,
    SimpleGlazing,            !- Name
    1.98739205,               !- UFactor
    0.34,                     !- Solar Heat Gain Coefficient
    0.52;                     !- Visible Transmittance

CONSTRUCTION,
    ExtWall,                  !- Name
    Mat_Conc,                 !- Outside Layer
    Mat_Insul,                !- Layer 2
    Mat_Gyp;                  !- Layer 3

CONSTRUCTION,
    ExtRoof,                  !- Name
    Mat_RoofDeck,             !- Outside Layer
    Mat_RoofIns,              !- Layer 2
    Mat_Gyp;                  !- Layer 3

CONSTRUCTION,
    ExtFloor,                 !- Name
    Mat_Insul,                !- Outside Layer
    Mat_Conc;                 !- Layer 2

CONSTRUCTION,
    ExtWindow,                !- Name
    SimpleGlazing;            !- Outside Layer

GLOBALGEOMETRYRULES,
    UpperLeftCorner,          !- Starting Vertex Position
    CounterClockWise,         !- Vertex Entry Direction
    Relative,                 !- Coordinate System
    Relative,                 !- Daylighting Reference Point Coordinate System
    Relative;                 !- Rectangular Surface Coordinate System

ZONE,
    1F_Library_IMC,           !- Name
    0,                        !- Direction of Relative North
    0,                        !- X Origin
    0,                        !- Y Origin
    0,                        !- Z Origin
    1,                        !- Type
    1,                        !- Multiplier
    autocalculate,            !- Ceiling Height
    autocalculate,            !- Volume
    autocalculate,            !- Floor Area
    ,                         !- Zone Inside Convection Algorithm
    ,                         !- Zone Outside Convection Algorithm
    Yes;                      !- Part of Total Floor Area

ZONE,
    1F_Cafe_Kitchen,          !- Name
    0,                        !- Direction of Relative North
    0,                        !- X Origin
    0,                        !- Y Origin
    0,                        !- Z Origin
    1,                        !- Type
    1,                        !- Multiplier
    autocalculate,            !- Ceiling Height
    autocalculate,            !- Volume
    autocalculate,            !- Floor Area
    ,                         !- Zone Inside Convection Algorithm
    ,                         !- Zone Outside Convection Algorithm
    Yes;                      !- Part of Total Floor Area

ZONE,
    1F_Gym,                   !- Name
    0,                        !- Direction of Relative North
    0,                        !- X Origin
    0,                        !- Y Origin
    0,                        !- Z Origin
    1,                        !- Type
    1,                        !- Multiplier
    autocalculate,            !- Ceiling Height
    autocalculate,            !- Volume
    autocalculate,            !- Floor Area
    ,                         !- Zone Inside Convection Algorithm
    ,                         !- Zone Outside Convection Algorithm
    Yes;                      !- Part of Total Floor Area

ZONE,
    1F_Area_A,                !- Name
    0,                        !- Direction of Relative North
    0,                        !- X Origin
    0,                        !- Y Origin
    0,                        !- Z Origin
    1,                        !- Type
    1,                        !- Multiplier
    autocalculate,            !- Ceiling Height
    autocalculate,            !- Volume
    autocalculate,            !- Floor Area
    ,                         !- Zone Inside Convection Algorithm
    ,                         !- Zone Outside Convection Algorithm
    Yes;                      !- Part of Total Floor Area

ZONE,
    1F_Area_B,                !- Name
    0,                        !- Direction of Relative North
    0,                        !- X Origin
    0,                        !- Y Origin
    0,                        !- Z Origin
    1,                        !- Type
    1,                        !- Multiplier
    autocalculate,            !- Ceiling Height
    autocalculate,            !- Volume
    autocalculate,            !- Floor Area
    ,                         !- Zone Inside Convection Algorithm
    ,                         !- Zone Outside Convection Algorithm
    Yes;                      !- Part of Total Floor Area

ZONE,
    1F_Area_C,                !- Name
    0,                        !- Direction of Relative North
    0,                        !- X Origin
    0,                        !- Y Origin
    0,                        !- Z Origin
    1,                        !- Type
    1,                        !- Multiplier
    autocalculate,            !- Ceiling Height
    autocalculate,            !- Volume
    autocalculate,            !- Floor Area
    ,                         !- Zone Inside Convection Algorithm
    ,                         !- Zone Outside Convection Algorithm
    Yes;                      !- Part of Total Floor Area

ZONE,
    1F_Area_D,                !- Name
    0,                        !- Direction of Relative North
    0,                        !- X Origin
    0,                        !- Y Origin
    0,                        !- Z Origin
    1,                        !- Type
    1,                        !- Multiplier
    autocalculate,            !- Ceiling Height
    autocalculate,            !- Volume
    autocalculate,            !- Floor Area
    ,                         !- Zone Inside Convection Algorithm
    ,                         !- Zone Outside Convection Algorithm
    Yes;                      !- Part of Total Floor Area

ZONE,
    2F_Area_A,                !- Name
    0,                        !- Direction of Relative North
    0,                        !- X Origin
    0,                        !- Y Origin
    0,                        !- Z Origin
    1,                        !- Type
    1,                        !- Multiplier
    autocalculate,            !- Ceiling Height
    autocalculate,            !- Volume
    autocalculate,            !- Floor Area
    ,                         !- Zone Inside Convection Algorithm
    ,                         !- Zone Outside Convection Algorithm
    Yes;                      !- Part of Total Floor Area

ZONE,
    2F_Area_B,                !- Name
    0,                        !- Direction of Relative North
    0,                        !- X Origin
    0,                        !- Y Origin
    0,                        !- Z Origin
    1,                        !- Type
    1,                        !- Multiplier
    autocalculate,            !- Ceiling Height
    autocalculate,            !- Volume
    autocalculate,            !- Floor Area
    ,                         !- Zone Inside Convection Algorithm
    ,                         !- Zone Outside Convection Algorithm
    Yes;                      !- Part of Total Floor Area

BUILDINGSURFACE:DETAILED,
    1F_Library_IMC_Floor,     !- Name
    Floor,                    !- Surface Type
    ExtFloor,                 !- Construction Name
    1F_Library_IMC,           !- Zone Name
    ,                         !- Space Name
    Ground,                   !- Outside Boundary Condition
    ,                         !- Outside Boundary Condition Object
    NoSun,                    !- Sun Exposure
    NoWind,                   !- Wind Exposure
    autocalculate,            !- View Factor to Ground
    4,                        !- Number of Vertices
    0,                        !- Vertex 1 Xcoordinate
    80,                       !- Vertex 1 Ycoordinate
    0,                        !- Vertex 1 Zcoordinate
    0,                        !- Vertex 2 Xcoordinate
    94.36840670050479,        !- Vertex 2 Ycoordinate
    0,                        !- Vertex 2 Zcoordinate
    25.863132060908633,       !- Vertex 3 Xcoordinate
    94.36840670050479,        !- Vertex 3 Ycoordinate
    0,                        !- Vertex 3 Zcoordinate
    25.863132060908633,       !- Vertex 4 Xcoordinate
    80,                       !- Vertex 4 Ycoordinate
    0;                        !- Vertex 4 Zcoordinate

BUILDINGSURFACE:DETAILED,
    1F_Library_IMC_Roof,      !- Name
    Roof,                     !- Surface Type
    ExtRoof,                  !- Construction Name
    1F_Library_IMC,           !- Zone Name
    ,                         !- Space Name
    Outdoors,                 !- Outside Boundary Condition
    ,                         !- Outside Boundary Condition Object
    SunExposed,               !- Sun Exposure
    WindExposed,              !- Wind Exposure
    autocalculate,            !- View Factor to Ground
    4,                        !- Number of Vertices
    0,                        !- Vertex 1 Xcoordinate
    80,                       !- Vertex 1 Ycoordinate
    3.6576000000000004,       !- Vertex 1 Zcoordinate
    25.863132060908633,       !- Vertex 2 Xcoordinate
    80,                       !- Vertex 2 Ycoordinate
    3.6576000000000004,       !- Vertex 2 Zcoordinate
    25.863132060908633,       !- Vertex 3 Xcoordinate
    94.36840670050479,        !- Vertex 3 Ycoordinate
    3.6576000000000004,       !- Vertex 3 Zcoordinate
    0,                        !- Vertex 4 Xcoordinate
    94.36840670050479,        !- Vertex 4 Ycoordinate
    3.6576000000000004;       !- Vertex 4 Zcoordinate

BUILDINGSURFACE:DETAILED,
    1F_Library_IMC_S,         !- Name
    Wall,                     !- Surface Type
    ExtWall,                  !- Construction Name
    1F_Library_IMC,           !- Zone Name
    ,                         !- Space Name
    Outdoors,                 !- Outside Boundary Condition
    ,                         !- Outside Boundary Condition Object
    SunExposed,               !- Sun Exposure
    WindExposed,              !- Wind Exposure
    autocalculate,            !- View Factor to Ground
    4,                        !- Number of Vertices
    0,                        !- Vertex 1 Xcoordinate
    80,                       !- Vertex 1 Ycoordinate
    0,                        !- Vertex 1 Zcoordinate
    25.863132060908633,       !- Vertex 2 Xcoordinate
    80,                       !- Vertex 2 Ycoordinate
    0,                        !- Vertex 2 Zcoordinate
    25.863132060908633,       !- Vertex 3 Xcoordinate
    80,                       !- Vertex 3 Ycoordinate
    3.6576000000000004,       !- Vertex 3 Zcoordinate
    0,                        !- Vertex 4 Xcoordinate
    80,                       !- Vertex 4 Ycoordinate
    3.6576000000000004;       !- Vertex 4 Zcoordinate

BUILDINGSURFACE:DETAILED,
    1F_Library_IMC_N,         !- Name
    Wall,                     !- Surface Type
    ExtWall,                  !- Construction Name
    1F_Library_IMC,           !- Zone Name
    ,                         !- Space Name
    Outdoors,                 !- Outside Boundary Condition
    ,                         !- Outside Boundary Condition Object
    SunExposed,               !- Sun Exposure
    WindExposed,              !- Wind Exposure
    autocalculate,            !- View Factor to Ground
    4,                        !- Number of Vertices
    25.863132060908633,       !- Vertex 1 Xcoordinate
    94.36840670050479,        !- Vertex 1 Ycoordinate
    0,                        !- Vertex 1 Zcoordinate
    0,                        !- Vertex 2 Xcoordinate
    94.36840670050479,        !- Vertex 2 Ycoordinate
    0,                        !- Vertex 2 Zcoordinate
    0,                        !- Vertex 3 Xcoordinate
    94.36840670050479,        !- Vertex 3 Ycoordinate
    3.6576000000000004,       !- Vertex 3 Zcoordinate
    25.863132060908633,       !- Vertex 4 Xcoordinate
    94.36840670050479,        !- Vertex 4 Ycoordinate
    3.6576000000000004;       !- Vertex 4 Zcoordinate

BUILDINGSURFACE:DETAILED,
    1F_Library_IMC_E,         !- Name
    Wall,                     !- Surface Type
    ExtWall,                  !- Construction Name
    1F_Library_IMC,           !- Zone Name
    ,                         !- Space Name
    Outdoors,                 !- Outside Boundary Condition
    ,                         !- Outside Boundary Condition Object
    SunExposed,               !- Sun Exposure
    WindExposed,              !- Wind Exposure
    autocalculate,            !- View Factor to Ground
    4,                        !- Number of Vertices
    25.863132060908633,       !- Vertex 1 Xcoordinate
    80,                       !- Vertex 1 Ycoordinate
    0,                        !- Vertex 1 Zcoordinate
    25.863132060908633,       !- Vertex 2 Xcoordinate
    94.36840670050479,        !- Vertex 2 Ycoordinate
    0,                        !- Vertex 2 Zcoordinate
    25.863132060908633,       !- Vertex 3 Xcoordinate
    94.36840670050479,        !- Vertex 3 Ycoordinate
    3.6576000000000004,       !- Vertex 3 Zcoordinate
    25.863132060908633,       !- Vertex 4 Xcoordinate
    80,                       !- Vertex 4 Ycoordinate
    3.6576000000000004;       !- Vertex 4 Zcoordinate

BUILDINGSURFACE:DETAILED,
    1F_Library_IMC_W,         !- Name
    Wall,                     !- Surface Type
    ExtWall,                  !- Construction Name
    1F_Library_IMC,           !- Zone Name
    ,                         !- Space Name
    Outdoors,                 !- Outside Boundary Condition
    ,                         !- Outside Boundary Condition Object
    SunExposed,               !- Sun Exposure
    WindExposed,              !- Wind Exposure
    autocalculate,            !- View Factor to Ground
    4,                        !- Number of Vertices
    0,                        !- Vertex 1 Xcoordinate
    94.36840670050479,        !- Vertex 1 Ycoordinate
    0,                        !- Vertex 1 Zcoordinate
    0,                        !- Vertex 2 Xcoordinate
    80,                       !- Vertex 2 Ycoordinate
    0,                        !- Vertex 2 Zcoordinate
    0,                        !- Vertex 3 Xcoordinate
    80,                       !- Vertex 3 Ycoordinate
    3.6576000000000004,       !- Vertex 3 Zcoordinate
    0,                        !- Vertex 4 Xcoordinate
    94.36840670050479,        !- Vertex 4 Ycoordinate
    3.6576000000000004;       !- Vertex 4 Zcoordinate

BUILDINGSURFACE:DETAILED,
    1F_Cafe_Kitchen_Floor,    !- Name
    Floor,                    !- Surface Type
    ExtFloor,                 !- Construction Name
    1F_Cafe_Kitchen,          !- Zone Name
    ,                         !- Space Name
    Ground,                   !- Outside Boundary Condition
    ,                         !- Outside Boundary Condition Object
    NoSun,                    !- Sun Exposure
    NoWind,                   !- Wind Exposure
    autocalculate,            !- View Factor to Ground
    4,                        !- Number of Vertices
    28.863132060908633,       !- Vertex 1 Xcoordinate
    80,                       !- Vertex 1 Ycoordinate
    0,                        !- Vertex 1 Zcoordinate
    28.863132060908633,       !- Vertex 2 Xcoordinate
    98.45655258528345,        !- Vertex 2 Ycoordinate
    0,                        !- Vertex 2 Zcoordinate
    62.08492671441885,        !- Vertex 3 Xcoordinate
    98.45655258528345,        !- Vertex 3 Ycoordinate
    0,                        !- Vertex 3 Zcoordinate
    62.08492671441885,        !- Vertex 4 Xcoordinate
    80,                       !- Vertex 4 Ycoordinate
    0;                        !- Vertex 4 Zcoordinate

BUILDINGSURFACE:DETAILED,
    1F_Cafe_Kitchen_Roof,     !- Name
    Roof,                     !- Surface Type
    ExtRoof,                  !- Construction Name
    1F_Cafe_Kitchen,          !- Zone Name
    ,                         !- Space Name
    Outdoors,                 !- Outside Boundary Condition
    ,                         !- Outside Boundary Condition Object
    SunExposed,               !- Sun Exposure
    WindExposed,              !- Wind Exposure
    autocalculate,            !- View Factor to Ground
    4,                        !- Number of Vertices
    28.863132060908633,       !- Vertex 1 Xcoordinate
    80,                       !- Vertex 1 Ycoordinate
    4.2672,                   !- Vertex 1 Zcoordinate
    62.08492671441885,        !- Vertex 2 Xcoordinate
    80,                       !- Vertex 2 Ycoordinate
    4.2672,                   !- Vertex 2 Zcoordinate
    62.08492671441885,        !- Vertex 3 Xcoordinate
    98.45655258528345,        !- Vertex 3 Ycoordinate
    4.2672,                   !- Vertex 3 Zcoordinate
    28.863132060908633,       !- Vertex 4 Xcoordinate
    98.45655258528345,        !- Vertex 4 Ycoordinate
    4.2672;                   !- Vertex 4 Zcoordinate

BUILDINGSURFACE:DETAILED,
    1F_Cafe_Kitchen_S,        !- Name
    Wall,                     !- Surface Type
    ExtWall,                  !- Construction Name
    1F_Cafe_Kitchen,          !- Zone Name
    ,                         !- Space Name
    Outdoors,                 !- Outside Boundary Condition
    ,                         !- Outside Boundary Condition Object
    SunExposed,               !- Sun Exposure
    WindExposed,              !- Wind Exposure
    autocalculate,            !- View Factor to Ground
    4,                        !- Number of Vertices
    28.863132060908633,       !- Vertex 1 Xcoordinate
    80,                       !- Vertex 1 Ycoordinate
    0,                        !- Vertex 1 Zcoordinate
    62.08492671441885,        !- Vertex 2 Xcoordinate
    80,                       !- Vertex 2 Ycoordinate
    0,                        !- Vertex 2 Zcoordinate
    62.08492671441885,        !- Vertex 3 Xcoordinate
    80,                       !- Vertex 3 Ycoordinate
    4.2672,                   !- Vertex 3 Zcoordinate
    28.863132060908633,       !- Vertex 4 Xcoordinate
    80,                       !- Vertex 4 Ycoordinate
    4.2672;                   !- Vertex 4 Zcoordinate

BUILDINGSURFACE:DETAILED,
    1F_Cafe_Kitchen_N,        !- Name
    Wall,                     !- Surface Type
    ExtWall,                  !- Construction Name
    1F_Cafe_Kitchen,          !- Zone Name
    ,                         !- Space Name
    Outdoors,                 !- Outside Boundary Condition
    ,                         !- Outside Boundary Condition Object
    SunExposed,               !- Sun Exposure
    WindExposed,              !- Wind Exposure
    autocalculate,            !- View Factor to Ground
    4,                        !- Number of Vertices
    62.08492671441885,        !- Vertex 1 Xcoordinate
    98.45655258528345,        !- Vertex 1 Ycoordinate
    0,                        !- Vertex 1 Zcoordinate
    28.863132060908633,       !- Vertex 2 Xcoordinate
    98.45655258528345,        !- Vertex 2 Ycoordinate
    0,                        !- Vertex 2 Zcoordinate
    28.863132060908633,       !- Vertex 3 Xcoordinate
    98.45655258528345,        !- Vertex 3 Ycoordinate
    4.2672,                   !- Vertex 3 Zcoordinate
    62.08492671441885,        !- Vertex 4 Xcoordinate
    98.45655258528345,        !- Vertex 4 Ycoordinate
    4.2672;                   !- Vertex 4 Zcoordinate

BUILDINGSURFACE:DETAILED,
    1F_Cafe_Kitchen_E,        !- Name
    Wall,                     !- Surface Type
    ExtWall,                  !- Construction Name
    1F_Cafe_Kitchen,          !- Zone Name
    ,                         !- Space Name
    Outdoors,                 !- Outside Boundary Condition
    ,                         !- Outside Boundary Condition Object
    SunExposed,               !- Sun Exposure
    WindExposed,              !- Wind Exposure
    autocalculate,            !- View Factor to Ground
    4,                        !- Number of Vertices
    62.08492671441885,        !- Vertex 1 Xcoordinate
    80,                       !- Vertex 1 Ycoordinate
    0,                        !- Vertex 1 Zcoordinate
    62.08492671441885,        !- Vertex 2 Xcoordinate
    98.45655258528345,        !- Vertex 2 Ycoordinate
    0,                        !- Vertex 2 Zcoordinate
    62.08492671441885,        !- Vertex 3 Xcoordinate
    98.45655258528345,        !- Vertex 3 Ycoordinate
    4.2672,                   !- Vertex 3 Zcoordinate
    62.08492671441885,        !- Vertex 4 Xcoordinate
    80,                       !- Vertex 4 Ycoordinate
    4.2672;                   !- Vertex 4 Zcoordinate

BUILDINGSURFACE:DETAILED,
    1F_Cafe_Kitchen_W,        !- Name
    Wall,                     !- Surface Type
    ExtWall,                  !- Construction Name
    1F_Cafe_Kitchen,          !- Zone Name
    ,                         !- Space Name
    Outdoors,                 !- Outside Boundary Condition
    ,                         !- Outside Boundary Condition Object
    SunExposed,               !- Sun Exposure
    WindExposed,              !- Wind Exposure
    autocalculate,            !- View Factor to Ground
    4,                        !- Number of Vertices
    28.863132060908633,       !- Vertex 1 Xcoordinate
    98.45655258528345,        !- Vertex 1 Ycoordinate
    0,                        !- Vertex 1 Zcoordinate
    28.863132060908633,       !- Vertex 2 Xcoordinate
    80,                       !- Vertex 2 Ycoordinate
    0,                        !- Vertex 2 Zcoordinate
    28.863132060908633,       !- Vertex 3 Xcoordinate
    80,                       !- Vertex 3 Ycoordinate
    4.2672,                   !- Vertex 3 Zcoordinate
    28.863132060908633,       !- Vertex 4 Xcoordinate
    98.45655258528345,        !- Vertex 4 Ycoordinate
    4.2672;                   !- Vertex 4 Zcoordinate

BUILDINGSURFACE:DETAILED,
    1F_Gym_Floor,             !- Name
    Floor,                    !- Surface Type
    ExtFloor,                 !- Construction Name
    1F_Gym,                   !- Zone Name
    ,                         !- Space Name
    Ground,                   !- Outside Boundary Condition
    ,                         !- Outside Boundary Condition Object
    NoSun,                    !- Sun Exposure
    NoWind,                   !- Wind Exposure
    autocalculate,            !- View Factor to Ground
    4,                        !- Number of Vertices
    65.08492671441886,        !- Vertex 1 Xcoordinate
    80,                       !- Vertex 1 Ycoordinate
    0,                        !- Vertex 1 Zcoordinate
    65.08492671441886,        !- Vertex 2 Xcoordinate
    102.30907086494511,       !- Vertex 2 Ycoordinate
    0,                        !- Vertex 2 Zcoordinate
    96.31762592534201,        !- Vertex 3 Xcoordinate
    102.30907086494511,       !- Vertex 3 Ycoordinate
    0,                        !- Vertex 3 Zcoordinate
    96.31762592534201,        !- Vertex 4 Xcoordinate
    80,                       !- Vertex 4 Ycoordinate
    0;                        !- Vertex 4 Zcoordinate

BUILDINGSURFACE:DETAILED,
    1F_Gym_Roof,              !- Name
    Roof,                     !- Surface Type
    ExtRoof,                  !- Construction Name
    1F_Gym,                   !- Zone Name
    ,                         !- Space Name
    Outdoors,                 !- Outside Boundary Condition
    ,                         !- Outside Boundary Condition Object
    SunExposed,               !- Sun Exposure
    WindExposed,              !- Wind Exposure
    autocalculate,            !- View Factor to Ground
    4,                        !- Number of Vertices
    65.08492671441886,        !- Vertex 1 Xcoordinate
    80,                       !- Vertex 1 Ycoordinate
    7.315200000000001,        !- Vertex 1 Zcoordinate
    96.31762592534201,        !- Vertex 2 Xcoordinate
    80,                       !- Vertex 2 Ycoordinate
    7.315200000000001,        !- Vertex 2 Zcoordinate
    96.31762592534201,        !- Vertex 3 Xcoordinate
    102.30907086494511,       !- Vertex 3 Ycoordinate
    7.315200000000001,        !- Vertex 3 Zcoordinate
    65.08492671441886,        !- Vertex 4 Xcoordinate
    102.30907086494511,       !- Vertex 4 Ycoordinate
    7.315200000000001;        !- Vertex 4 Zcoordinate

BUILDINGSURFACE:DETAILED,
    1F_Gym_S,                 !- Name
    Wall,                     !- Surface Type
    ExtWall,                  !- Construction Name
    1F_Gym,                   !- Zone Name
    ,                         !- Space Name
    Outdoors,                 !- Outside Boundary Condition
    ,                         !- Outside Boundary Condition Object
    SunExposed,               !- Sun Exposure
    WindExposed,              !- Wind Exposure
    autocalculate,            !- View Factor to Ground
    4,                        !- Number of Vertices
    65.08492671441886,        !- Vertex 1 Xcoordinate
    80,                       !- Vertex 1 Ycoordinate
    0,                        !- Vertex 1 Zcoordinate
    96.31762592534201,        !- Vertex 2 Xcoordinate
    80,                       !- Vertex 2 Ycoordinate
    0,                        !- Vertex 2 Zcoordinate
    96.31762592534201,        !- Vertex 3 Xcoordinate
    80,                       !- Vertex 3 Ycoordinate
    7.315200000000001,        !- Vertex 3 Zcoordinate
    65.08492671441886,        !- Vertex 4 Xcoordinate
    80,                       !- Vertex 4 Ycoordinate
    7.315200000000001;        !- Vertex 4 Zcoordinate

BUILDINGSURFACE:DETAILED,
    1F_Gym_N,                 !- Name
    Wall,                     !- Surface Type
    ExtWall,                  !- Construction Name
    1F_Gym,                   !- Zone Name
    ,                         !- Space Name
    Outdoors,                 !- Outside Boundary Condition
    ,                         !- Outside Boundary Condition Object
    SunExposed,               !- Sun Exposure
    WindExposed,              !- Wind Exposure
    autocalculate,            !- View Factor to Ground
    4,                        !- Number of Vertices
    96.31762592534201,        !- Vertex 1 Xcoordinate
    102.30907086494511,       !- Vertex 1 Ycoordinate
    0,                        !- Vertex 1 Zcoordinate
    65.08492671441886,        !- Vertex 2 Xcoordinate
    102.30907086494511,       !- Vertex 2 Ycoordinate
    0,                        !- Vertex 2 Zcoordinate
    65.08492671441886,        !- Vertex 3 Xcoordinate
    102.30907086494511,       !- Vertex 3 Ycoordinate
    7.315200000000001,        !- Vertex 3 Zcoordinate
    96.31762592534201,        !- Vertex 4 Xcoordinate
    102.30907086494511,       !- Vertex 4 Ycoordinate
    7.315200000000001;        !- Vertex 4 Zcoordinate

BUILDINGSURFACE:DETAILED,
    1F_Gym_E,                 !- Name
    Wall,                     !- Surface Type
    ExtWall,                  !- Construction Name
    1F_Gym,                   !- Zone Name
    ,                         !- Space Name
    Outdoors,                 !- Outside Boundary Condition
    ,                         !- Outside Boundary Condition Object
    SunExposed,               !- Sun Exposure
    WindExposed,              !- Wind Exposure
    autocalculate,            !- View Factor to Ground
    4,                        !- Number of Vertices
    96.31762592534201,        !- Vertex 1 Xcoordinate
    80,                       !- Vertex 1 Ycoordinate
    0,                        !- Vertex 1 Zcoordinate
    96.31762592534201,        !- Vertex 2 Xcoordinate
    102.30907086494511,       !- Vertex 2 Ycoordinate
    0,                        !- Vertex 2 Zcoordinate
    96.31762592534201,        !- Vertex 3 Xcoordinate
    102.30907086494511,       !- Vertex 3 Ycoordinate
    7.315200000000001,        !- Vertex 3 Zcoordinate
    96.31762592534201,        !- Vertex 4 Xcoordinate
    80,                       !- Vertex 4 Ycoordinate
    7.315200000000001;        !- Vertex 4 Zcoordinate

BUILDINGSURFACE:DETAILED,
    1F_Gym_W,                 !- Name
    Wall,                     !- Surface Type
    ExtWall,                  !- Construction Name
    1F_Gym,                   !- Zone Name
    ,                         !- Space Name
    Outdoors,                 !- Outside Boundary Condition
    ,                         !- Outside Boundary Condition Object
    SunExposed,               !- Sun Exposure
    WindExposed,              !- Wind Exposure
    autocalculate,            !- View Factor to Ground
    4,                        !- Number of Vertices
    65.08492671441886,        !- Vertex 1 Xcoordinate
    102.30907086494511,       !- Vertex 1 Ycoordinate
    0,                        !- Vertex 1 Zcoordinate
    65.08492671441886,        !- Vertex 2 Xcoordinate
    80,                       !- Vertex 2 Ycoordinate
    0,                        !- Vertex 2 Zcoordinate
    65.08492671441886,        !- Vertex 3 Xcoordinate
    80,                       !- Vertex 3 Ycoordinate
    7.315200000000001,        !- Vertex 3 Zcoordinate
    65.08492671441886,        !- Vertex 4 Xcoordinate
    102.30907086494511,       !- Vertex 4 Ycoordinate
    7.315200000000001;        !- Vertex 4 Zcoordinate

BUILDINGSURFACE:DETAILED,
    1F_Area_A_Floor,          !- Name
    Floor,                    !- Surface Type
    ExtFloor,                 !- Construction Name
    1F_Area_A,                !- Zone Name
    ,                         !- Space Name
    Ground,                   !- Outside Boundary Condition
    ,                         !- Outside Boundary Condition Object
    NoSun,                    !- Sun Exposure
    NoWind,                   !- Wind Exposure
    autocalculate,            !- View Factor to Ground
    4,                        !- Number of Vertices
    0,                        !- Vertex 1 Xcoordinate
    0,                        !- Vertex 1 Ycoordinate
    0,                        !- Vertex 1 Zcoordinate
    0,                        !- Vertex 2 Xcoordinate
    22.1142997690355,         !- Vertex 2 Ycoordinate
    0,                        !- Vertex 2 Zcoordinate
    48.6514594918781,         !- Vertex 3 Xcoordinate
    22.1142997690355,         !- Vertex 3 Ycoordinate
    0,                        !- Vertex 3 Zcoordinate
    48.6514594918781,         !- Vertex 4 Xcoordinate
    0,                        !- Vertex 4 Ycoordinate
    0;                        !- Vertex 4 Zcoordinate

BUILDINGSURFACE:DETAILED,
    1F_Area_A_Roof,           !- Name
    Roof,                     !- Surface Type
    ExtRoof,                  !- Construction Name
    1F_Area_A,                !- Zone Name
    ,                         !- Space Name
    Outdoors,                 !- Outside Boundary Condition
    ,                         !- Outside Boundary Condition Object
    SunExposed,               !- Sun Exposure
    WindExposed,              !- Wind Exposure
    autocalculate,            !- View Factor to Ground
    4,                        !- Number of Vertices
    0,                        !- Vertex 1 Xcoordinate
    0,                        !- Vertex 1 Ycoordinate
    3.048,                    !- Vertex 1 Zcoordinate
    48.6514594918781,         !- Vertex 2 Xcoordinate
    0,                        !- Vertex 2 Ycoordinate
    3.048,                    !- Vertex 2 Zcoordinate
    48.6514594918781,         !- Vertex 3 Xcoordinate
    22.1142997690355,         !- Vertex 3 Ycoordinate
    3.048,                    !- Vertex 3 Zcoordinate
    0,                        !- Vertex 4 Xcoordinate
    22.1142997690355,         !- Vertex 4 Ycoordinate
    3.048;                    !- Vertex 4 Zcoordinate

BUILDINGSURFACE:DETAILED,
    1F_Area_A_S,              !- Name
    Wall,                     !- Surface Type
    ExtWall,                  !- Construction Name
    1F_Area_A,                !- Zone Name
    ,                         !- Space Name
    Outdoors,                 !- Outside Boundary Condition
    ,                         !- Outside Boundary Condition Object
    SunExposed,               !- Sun Exposure
    WindExposed,              !- Wind Exposure
    autocalculate,            !- View Factor to Ground
    4,                        !- Number of Vertices
    0,                        !- Vertex 1 Xcoordinate
    0,                        !- Vertex 1 Ycoordinate
    0,                        !- Vertex 1 Zcoordinate
    48.6514594918781,         !- Vertex 2 Xcoordinate
    0,                        !- Vertex 2 Ycoordinate
    0,                        !- Vertex 2 Zcoordinate
    48.6514594918781,         !- Vertex 3 Xcoordinate
    0,                        !- Vertex 3 Ycoordinate
    3.048,                    !- Vertex 3 Zcoordinate
    0,                        !- Vertex 4 Xcoordinate
    0,                        !- Vertex 4 Ycoordinate
    3.048;                    !- Vertex 4 Zcoordinate

BUILDINGSURFACE:DETAILED,
    1F_Area_A_N,              !- Name
    Wall,                     !- Surface Type
    ExtWall,                  !- Construction Name
    1F_Area_A,                !- Zone Name
    ,                         !- Space Name
    Outdoors,                 !- Outside Boundary Condition
    ,                         !- Outside Boundary Condition Object
    SunExposed,               !- Sun Exposure
    WindExposed,              !- Wind Exposure
    autocalculate,            !- View Factor to Ground
    4,                        !- Number of Vertices
    48.6514594918781,         !- Vertex 1 Xcoordinate
    22.1142997690355,         !- Vertex 1 Ycoordinate
    0,                        !- Vertex 1 Zcoordinate
    0,                        !- Vertex 2 Xcoordinate
    22.1142997690355,         !- Vertex 2 Ycoordinate
    0,                        !- Vertex 2 Zcoordinate
    0,                        !- Vertex 3 Xcoordinate
    22.1142997690355,         !- Vertex 3 Ycoordinate
    3.048,                    !- Vertex 3 Zcoordinate
    48.6514594918781,         !- Vertex 4 Xcoordinate
    22.1142997690355,         !- Vertex 4 Ycoordinate
    3.048;                    !- Vertex 4 Zcoordinate

BUILDINGSURFACE:DETAILED,
    1F_Area_A_E,              !- Name
    Wall,                     !- Surface Type
    ExtWall,                  !- Construction Name
    1F_Area_A,                !- Zone Name
    ,                         !- Space Name
    Outdoors,                 !- Outside Boundary Condition
    ,                         !- Outside Boundary Condition Object
    SunExposed,               !- Sun Exposure
    WindExposed,              !- Wind Exposure
    autocalculate,            !- View Factor to Ground
    4,                        !- Number of Vertices
    48.6514594918781,         !- Vertex 1 Xcoordinate
    0,                        !- Vertex 1 Ycoordinate
    0,                        !- Vertex 1 Zcoordinate
    48.6514594918781,         !- Vertex 2 Xcoordinate
    22.1142997690355,         !- Vertex 2 Ycoordinate
    0,                        !- Vertex 2 Zcoordinate
    48.6514594918781,         !- Vertex 3 Xcoordinate
    22.1142997690355,         !- Vertex 3 Ycoordinate
    3.048,                    !- Vertex 3 Zcoordinate
    48.6514594918781,         !- Vertex 4 Xcoordinate
    0,                        !- Vertex 4 Ycoordinate
    3.048;                    !- Vertex 4 Zcoordinate

BUILDINGSURFACE:DETAILED,
    1F_Area_A_W,              !- Name
    Wall,                     !- Surface Type
    ExtWall,                  !- Construction Name
    1F_Area_A,                !- Zone Name
    ,                         !- Space Name
    Outdoors,                 !- Outside Boundary Condition
    ,                         !- Outside Boundary Condition Object
    SunExposed,               !- Sun Exposure
    WindExposed,              !- Wind Exposure
    autocalculate,            !- View Factor to Ground
    4,                        !- Number of Vertices
    0,                        !- Vertex 1 Xcoordinate
    22.1142997690355,         !- Vertex 1 Ycoordinate
    0,                        !- Vertex 1 Zcoordinate
    0,                        !- Vertex 2 Xcoordinate
    0,                        !- Vertex 2 Ycoordinate
    0,                        !- Vertex 2 Zcoordinate
    0,                        !- Vertex 3 Xcoordinate
    0,                        !- Vertex 3 Ycoordinate
    3.048,                    !- Vertex 3 Zcoordinate
    0,                        !- Vertex 4 Xcoordinate
    22.1142997690355,         !- Vertex 4 Ycoordinate
    3.048;                    !- Vertex 4 Zcoordinate

BUILDINGSURFACE:DETAILED,
    1F_Area_B_Floor,          !- Name
    Floor,                    !- Surface Type
    ExtFloor,                 !- Construction Name
    1F_Area_B,                !- Zone Name
    ,                         !- Space Name
    Ground,                   !- Outside Boundary Condition
    ,                         !- Outside Boundary Condition Object
    NoSun,                    !- Sun Exposure
    NoWind,                   !- Wind Exposure
    autocalculate,            !- View Factor to Ground
    4,                        !- Number of Vertices
    50.6514594918781,         !- Vertex 1 Xcoordinate
    0,                        !- Vertex 1 Ycoordinate
    0,                        !- Vertex 1 Zcoordinate
    50.6514594918781,         !- Vertex 2 Xcoordinate
    18.056250151028287,       !- Vertex 2 Ycoordinate
    0,                        !- Vertex 2 Zcoordinate
    90.37520982414034,        !- Vertex 3 Xcoordinate
    18.056250151028287,       !- Vertex 3 Ycoordinate
    0,                        !- Vertex 3 Zcoordinate
    90.37520982414034,        !- Vertex 4 Xcoordinate
    0,                        !- Vertex 4 Ycoordinate
    0;                        !- Vertex 4 Zcoordinate

BUILDINGSURFACE:DETAILED,
    1F_Area_B_Roof,           !- Name
    Roof,                     !- Surface Type
    ExtRoof,                  !- Construction Name
    1F_Area_B,                !- Zone Name
    ,                         !- Space Name
    Outdoors,                 !- Outside Boundary Condition
    ,                         !- Outside Boundary Condition Object
    SunExposed,               !- Sun Exposure
    WindExposed,              !- Wind Exposure
    autocalculate,            !- View Factor to Ground
    4,                        !- Number of Vertices
    50.6514594918781,         !- Vertex 1 Xcoordinate
    0,                        !- Vertex 1 Ycoordinate
    3.048,                    !- Vertex 1 Zcoordinate
    90.37520982414034,        !- Vertex 2 Xcoordinate
    0,                        !- Vertex 2 Ycoordinate
    3.048,                    !- Vertex 2 Zcoordinate
    90.37520982414034,        !- Vertex 3 Xcoordinate
    18.056250151028287,       !- Vertex 3 Ycoordinate
    3.048,                    !- Vertex 3 Zcoordinate
    50.6514594918781,         !- Vertex 4 Xcoordinate
    18.056250151028287,       !- Vertex 4 Ycoordinate
    3.048;                    !- Vertex 4 Zcoordinate

BUILDINGSURFACE:DETAILED,
    1F_Area_B_S,              !- Name
    Wall,                     !- Surface Type
    ExtWall,                  !- Construction Name
    1F_Area_B,                !- Zone Name
    ,                         !- Space Name
    Outdoors,                 !- Outside Boundary Condition
    ,                         !- Outside Boundary Condition Object
    SunExposed,               !- Sun Exposure
    WindExposed,              !- Wind Exposure
    autocalculate,            !- View Factor to Ground
    4,                        !- Number of Vertices
    50.6514594918781,         !- Vertex 1 Xcoordinate
    0,                        !- Vertex 1 Ycoordinate
    0,                        !- Vertex 1 Zcoordinate
    90.37520982414034,        !- Vertex 2 Xcoordinate
    0,                        !- Vertex 2 Ycoordinate
    0,                        !- Vertex 2 Zcoordinate
    90.37520982414034,        !- Vertex 3 Xcoordinate
    0,                        !- Vertex 3 Ycoordinate
    3.048,                    !- Vertex 3 Zcoordinate
    50.6514594918781,         !- Vertex 4 Xcoordinate
    0,                        !- Vertex 4 Ycoordinate
    3.048;                    !- Vertex 4 Zcoordinate

BUILDINGSURFACE:DETAILED,
    1F_Area_B_N,              !- Name
    Wall,                     !- Surface Type
    ExtWall,                  !- Construction Name
    1F_Area_B,                !- Zone Name
    ,                         !- Space Name
    Outdoors,                 !- Outside Boundary Condition
    ,                         !- Outside Boundary Condition Object
    SunExposed,               !- Sun Exposure
    WindExposed,              !- Wind Exposure
    autocalculate,            !- View Factor to Ground
    4,                        !- Number of Vertices
    90.37520982414034,        !- Vertex 1 Xcoordinate
    18.056250151028287,       !- Vertex 1 Ycoordinate
    0,                        !- Vertex 1 Zcoordinate
    50.6514594918781,         !- Vertex 2 Xcoordinate
    18.056250151028287,       !- Vertex 2 Ycoordinate
    0,                        !- Vertex 2 Zcoordinate
    50.6514594918781,         !- Vertex 3 Xcoordinate
    18.056250151028287,       !- Vertex 3 Ycoordinate
    3.048,                    !- Vertex 3 Zcoordinate
    90.37520982414034,        !- Vertex 4 Xcoordinate
    18.056250151028287,       !- Vertex 4 Ycoordinate
    3.048;                    !- Vertex 4 Zcoordinate

BUILDINGSURFACE:DETAILED,
    1F_Area_B_E,              !- Name
    Wall,                     !- Surface Type
    ExtWall,                  !- Construction Name
    1F_Area_B,                !- Zone Name
    ,                         !- Space Name
    Outdoors,                 !- Outside Boundary Condition
    ,                         !- Outside Boundary Condition Object
    SunExposed,               !- Sun Exposure
    WindExposed,              !- Wind Exposure
    autocalculate,            !- View Factor to Ground
    4,                        !- Number of Vertices
    90.37520982414034,        !- Vertex 1 Xcoordinate
    0,                        !- Vertex 1 Ycoordinate
    0,                        !- Vertex 1 Zcoordinate
    90.37520982414034,        !- Vertex 2 Xcoordinate
    18.056250151028287,       !- Vertex 2 Ycoordinate
    0,                        !- Vertex 2 Zcoordinate
    90.37520982414034,        !- Vertex 3 Xcoordinate
    18.056250151028287,       !- Vertex 3 Ycoordinate
    3.048,                    !- Vertex 3 Zcoordinate
    90.37520982414034,        !- Vertex 4 Xcoordinate
    0,                        !- Vertex 4 Ycoordinate
    3.048;                    !- Vertex 4 Zcoordinate

BUILDINGSURFACE:DETAILED,
    1F_Area_B_W,              !- Name
    Wall,                     !- Surface Type
    ExtWall,                  !- Construction Name
    1F_Area_B,                !- Zone Name
    ,                         !- Space Name
    Outdoors,                 !- Outside Boundary Condition
    ,                         !- Outside Boundary Condition Object
    SunExposed,               !- Sun Exposure
    WindExposed,              !- Wind Exposure
    autocalculate,            !- View Factor to Ground
    4,                        !- Number of Vertices
    50.6514594918781,         !- Vertex 1 Xcoordinate
    18.056250151028287,       !- Vertex 1 Ycoordinate
    0,                        !- Vertex 1 Zcoordinate
    50.6514594918781,         !- Vertex 2 Xcoordinate
    0,                        !- Vertex 2 Ycoordinate
    0,                        !- Vertex 2 Zcoordinate
    50.6514594918781,         !- Vertex 3 Xcoordinate
    0,                        !- Vertex 3 Ycoordinate
    3.048,                    !- Vertex 3 Zcoordinate
    50.6514594918781,         !- Vertex 4 Xcoordinate
    18.056250151028287,       !- Vertex 4 Ycoordinate
    3.048;                    !- Vertex 4 Zcoordinate

BUILDINGSURFACE:DETAILED,
    1F_Area_C_Floor,          !- Name
    Floor,                    !- Surface Type
    ExtFloor,                 !- Construction Name
    1F_Area_C,                !- Zone Name
    ,                         !- Space Name
    Ground,                   !- Outside Boundary Condition
    ,                         !- Outside Boundary Condition Object
    NoSun,                    !- Sun Exposure
    NoWind,                   !- Wind Exposure
    autocalculate,            !- View Factor to Ground
    4,                        !- Number of Vertices
    92.37520982414034,        !- Vertex 1 Xcoordinate
    0,                        !- Vertex 1 Ycoordinate
    0,                        !- Vertex 1 Zcoordinate
    92.37520982414034,        !- Vertex 2 Xcoordinate
    18.937554923172105,       !- Vertex 2 Ycoordinate
    0,                        !- Vertex 2 Zcoordinate
    134.03783065511897,       !- Vertex 3 Xcoordinate
    18.937554923172105,       !- Vertex 3 Ycoordinate
    0,                        !- Vertex 3 Zcoordinate
    134.03783065511897,       !- Vertex 4 Xcoordinate
    0,                        !- Vertex 4 Ycoordinate
    0;                        !- Vertex 4 Zcoordinate

BUILDINGSURFACE:DETAILED,
    1F_Area_C_Roof,           !- Name
    Roof,                     !- Surface Type
    ExtRoof,                  !- Construction Name
    1F_Area_C,                !- Zone Name
    ,                         !- Space Name
    Outdoors,                 !- Outside Boundary Condition
    ,                         !- Outside Boundary Condition Object
    SunExposed,               !- Sun Exposure
    WindExposed,              !- Wind Exposure
    autocalculate,            !- View Factor to Ground
    4,                        !- Number of Vertices
    92.37520982414034,        !- Vertex 1 Xcoordinate
    0,                        !- Vertex 1 Ycoordinate
    3.048,                    !- Vertex 1 Zcoordinate
    134.03783065511897,       !- Vertex 2 Xcoordinate
    0,                        !- Vertex 2 Ycoordinate
    3.048,                    !- Vertex 2 Zcoordinate
    134.03783065511897,       !- Vertex 3 Xcoordinate
    18.937554923172105,       !- Vertex 3 Ycoordinate
    3.048,                    !- Vertex 3 Zcoordinate
    92.37520982414034,        !- Vertex 4 Xcoordinate
    18.937554923172105,       !- Vertex 4 Ycoordinate
    3.048;                    !- Vertex 4 Zcoordinate

BUILDINGSURFACE:DETAILED,
    1F_Area_C_S,              !- Name
    Wall,                     !- Surface Type
    ExtWall,                  !- Construction Name
    1F_Area_C,                !- Zone Name
    ,                         !- Space Name
    Outdoors,                 !- Outside Boundary Condition
    ,                         !- Outside Boundary Condition Object
    SunExposed,               !- Sun Exposure
    WindExposed,              !- Wind Exposure
    autocalculate,            !- View Factor to Ground
    4,                        !- Number of Vertices
    92.37520982414034,        !- Vertex 1 Xcoordinate
    0,                        !- Vertex 1 Ycoordinate
    0,                        !- Vertex 1 Zcoordinate
    134.03783065511897,       !- Vertex 2 Xcoordinate
    0,                        !- Vertex 2 Ycoordinate
    0,                        !- Vertex 2 Zcoordinate
    134.03783065511897,       !- Vertex 3 Xcoordinate
    0,                        !- Vertex 3 Ycoordinate
    3.048,                    !- Vertex 3 Zcoordinate
    92.37520982414034,        !- Vertex 4 Xcoordinate
    0,                        !- Vertex 4 Ycoordinate
    3.048;                    !- Vertex 4 Zcoordinate

BUILDINGSURFACE:DETAILED,
    1F_Area_C_N,              !- Name
    Wall,                     !- Surface Type
    ExtWall,                  !- Construction Name
    1F_Area_C,                !- Zone Name
    ,                         !- Space Name
    Outdoors,                 !- Outside Boundary Condition
    ,                         !- Outside Boundary Condition Object
    SunExposed,               !- Sun Exposure
    WindExposed,              !- Wind Exposure
    autocalculate,            !- View Factor to Ground
    4,                        !- Number of Vertices
    134.03783065511897,       !- Vertex 1 Xcoordinate
    18.937554923172105,       !- Vertex 1 Ycoordinate
    0,                        !- Vertex 1 Zcoordinate
    92.37520982414034,        !- Vertex 2 Xcoordinate
    18.937554923172105,       !- Vertex 2 Ycoordinate
    0,                        !- Vertex 2 Zcoordinate
    92.37520982414034,        !- Vertex 3 Xcoordinate
    18.937554923172105,       !- Vertex 3 Ycoordinate
    3.048,                    !- Vertex 3 Zcoordinate
    134.03783065511897,       !- Vertex 4 Xcoordinate
    18.937554923172105,       !- Vertex 4 Ycoordinate
    3.048;                    !- Vertex 4 Zcoordinate

BUILDINGSURFACE:DETAILED,
    1F_Area_C_E,              !- Name
    Wall,                     !- Surface Type
    ExtWall,                  !- Construction Name
    1F_Area_C,                !- Zone Name
    ,                         !- Space Name
    Outdoors,                 !- Outside Boundary Condition
    ,                         !- Outside Boundary Condition Object
    SunExposed,               !- Sun Exposure
    WindExposed,              !- Wind Exposure
    autocalculate,            !- View Factor to Ground
    4,                        !- Number of Vertices
    134.03783065511897,       !- Vertex 1 Xcoordinate
    0,                        !- Vertex 1 Ycoordinate
    0,                        !- Vertex 1 Zcoordinate
    134.03783065511897,       !- Vertex 2 Xcoordinate
    18.937554923172105,       !- Vertex 2 Ycoordinate
    0,                        !- Vertex 2 Zcoordinate
    134.03783065511897,       !- Vertex 3 Xcoordinate
    18.937554923172105,       !- Vertex 3 Ycoordinate
    3.048,                    !- Vertex 3 Zcoordinate
    134.03783065511897,       !- Vertex 4 Xcoordinate
    0,                        !- Vertex 4 Ycoordinate
    3.048;                    !- Vertex 4 Zcoordinate

BUILDINGSURFACE:DETAILED,
    1F_Area_C_W,              !- Name
    Wall,                     !- Surface Type
    ExtWall,                  !- Construction Name
    1F_Area_C,                !- Zone Name
    ,                         !- Space Name
    Outdoors,                 !- Outside Boundary Condition
    ,                         !- Outside Boundary Condition Object
    SunExposed,               !- Sun Exposure
    WindExposed,              !- Wind Exposure
    autocalculate,            !- View Factor to Ground
    4,                        !- Number of Vertices
    92.37520982414034,        !- Vertex 1 Xcoordinate
    18.937554923172105,       !- Vertex 1 Ycoordinate
    0,                        !- Vertex 1 Zcoordinate
    92.37520982414034,        !- Vertex 2 Xcoordinate
    0,                        !- Vertex 2 Ycoordinate
    0,                        !- Vertex 2 Zcoordinate
    92.37520982414034,        !- Vertex 3 Xcoordinate
    0,                        !- Vertex 3 Ycoordinate
    3.048,                    !- Vertex 3 Zcoordinate
    92.37520982414034,        !- Vertex 4 Xcoordinate
    18.937554923172105,       !- Vertex 4 Ycoordinate
    3.048;                    !- Vertex 4 Zcoordinate

BUILDINGSURFACE:DETAILED,
    1F_Area_D_Floor,          !- Name
    Floor,                    !- Surface Type
    ExtFloor,                 !- Construction Name
    1F_Area_D,                !- Zone Name
    ,                         !- Space Name
    Ground,                   !- Outside Boundary Condition
    ,                         !- Outside Boundary Condition Object
    NoSun,                    !- Sun Exposure
    NoWind,                   !- Wind Exposure
    autocalculate,            !- View Factor to Ground
    4,                        !- Number of Vertices
    136.03783065511897,       !- Vertex 1 Xcoordinate
    0,                        !- Vertex 1 Ycoordinate
    0,                        !- Vertex 1 Zcoordinate
    136.03783065511897,       !- Vertex 2 Xcoordinate
    18.056250151028287,       !- Vertex 2 Ycoordinate
    0,                        !- Vertex 2 Zcoordinate
    175.7615809873812,        !- Vertex 3 Xcoordinate
    18.056250151028287,       !- Vertex 3 Ycoordinate
    0,                        !- Vertex 3 Zcoordinate
    175.7615809873812,        !- Vertex 4 Xcoordinate
    0,                        !- Vertex 4 Ycoordinate
    0;                        !- Vertex 4 Zcoordinate

BUILDINGSURFACE:DETAILED,
    1F_Area_D_Roof,           !- Name
    Roof,                     !- Surface Type
    ExtRoof,                  !- Construction Name
    1F_Area_D,                !- Zone Name
    ,                         !- Space Name
    Outdoors,                 !- Outside Boundary Condition
    ,                         !- Outside Boundary Condition Object
    SunExposed,               !- Sun Exposure
    WindExposed,              !- Wind Exposure
    autocalculate,            !- View Factor to Ground
    4,                        !- Number of Vertices
    136.03783065511897,       !- Vertex 1 Xcoordinate
    0,                        !- Vertex 1 Ycoordinate
    3.048,                    !- Vertex 1 Zcoordinate
    175.7615809873812,        !- Vertex 2 Xcoordinate
    0,                        !- Vertex 2 Ycoordinate
    3.048,                    !- Vertex 2 Zcoordinate
    175.7615809873812,        !- Vertex 3 Xcoordinate
    18.056250151028287,       !- Vertex 3 Ycoordinate
    3.048,                    !- Vertex 3 Zcoordinate
    136.03783065511897,       !- Vertex 4 Xcoordinate
    18.056250151028287,       !- Vertex 4 Ycoordinate
    3.048;                    !- Vertex 4 Zcoordinate

BUILDINGSURFACE:DETAILED,
    1F_Area_D_S,              !- Name
    Wall,                     !- Surface Type
    ExtWall,                  !- Construction Name
    1F_Area_D,                !- Zone Name
    ,                         !- Space Name
    Outdoors,                 !- Outside Boundary Condition
    ,                         !- Outside Boundary Condition Object
    SunExposed,               !- Sun Exposure
    WindExposed,              !- Wind Exposure
    autocalculate,            !- View Factor to Ground
    4,                        !- Number of Vertices
    136.03783065511897,       !- Vertex 1 Xcoordinate
    0,                        !- Vertex 1 Ycoordinate
    0,                        !- Vertex 1 Zcoordinate
    175.7615809873812,        !- Vertex 2 Xcoordinate
    0,                        !- Vertex 2 Ycoordinate
    0,                        !- Vertex 2 Zcoordinate
    175.7615809873812,        !- Vertex 3 Xcoordinate
    0,                        !- Vertex 3 Ycoordinate
    3.048,                    !- Vertex 3 Zcoordinate
    136.03783065511897,       !- Vertex 4 Xcoordinate
    0,                        !- Vertex 4 Ycoordinate
    3.048;                    !- Vertex 4 Zcoordinate

BUILDINGSURFACE:DETAILED,
    1F_Area_D_N,              !- Name
    Wall,                     !- Surface Type
    ExtWall,                  !- Construction Name
    1F_Area_D,                !- Zone Name
    ,                         !- Space Name
    Outdoors,                 !- Outside Boundary Condition
    ,                         !- Outside Boundary Condition Object
    SunExposed,               !- Sun Exposure
    WindExposed,              !- Wind Exposure
    autocalculate,            !- View Factor to Ground
    4,                        !- Number of Vertices
    175.7615809873812,        !- Vertex 1 Xcoordinate
    18.056250151028287,       !- Vertex 1 Ycoordinate
    0,                        !- Vertex 1 Zcoordinate
    136.03783065511897,       !- Vertex 2 Xcoordinate
    18.056250151028287,       !- Vertex 2 Ycoordinate
    0,                        !- Vertex 2 Zcoordinate
    136.03783065511897,       !- Vertex 3 Xcoordinate
    18.056250151028287,       !- Vertex 3 Ycoordinate
    3.048,                    !- Vertex 3 Zcoordinate
    175.7615809873812,        !- Vertex 4 Xcoordinate
    18.056250151028287,       !- Vertex 4 Ycoordinate
    3.048;                    !- Vertex 4 Zcoordinate

BUILDINGSURFACE:DETAILED,
    1F_Area_D_E,              !- Name
    Wall,                     !- Surface Type
    ExtWall,                  !- Construction Name
    1F_Area_D,                !- Zone Name
    ,                         !- Space Name
    Outdoors,                 !- Outside Boundary Condition
    ,                         !- Outside Boundary Condition Object
    SunExposed,               !- Sun Exposure
    WindExposed,              !- Wind Exposure
    autocalculate,            !- View Factor to Ground
    4,                        !- Number of Vertices
    175.7615809873812,        !- Vertex 1 Xcoordinate
    0,                        !- Vertex 1 Ycoordinate
    0,                        !- Vertex 1 Zcoordinate
    175.7615809873812,        !- Vertex 2 Xcoordinate
    18.056250151028287,       !- Vertex 2 Ycoordinate
    0,                        !- Vertex 2 Zcoordinate
    175.7615809873812,        !- Vertex 3 Xcoordinate
    18.056250151028287,       !- Vertex 3 Ycoordinate
    3.048,                    !- Vertex 3 Zcoordinate
    175.7615809873812,        !- Vertex 4 Xcoordinate
    0,                        !- Vertex 4 Ycoordinate
    3.048;                    !- Vertex 4 Zcoordinate

BUILDINGSURFACE:DETAILED,
    1F_Area_D_W,              !- Name
    Wall,                     !- Surface Type
    ExtWall,                  !- Construction Name
    1F_Area_D,                !- Zone Name
    ,                         !- Space Name
    Outdoors,                 !- Outside Boundary Condition
    ,                         !- Outside Boundary Condition Object
    SunExposed,               !- Sun Exposure
    WindExposed,              !- Wind Exposure
    autocalculate,            !- View Factor to Ground
    4,                        !- Number of Vertices
    136.03783065511897,       !- Vertex 1 Xcoordinate
    18.056250151028287,       !- Vertex 1 Ycoordinate
    0,                        !- Vertex 1 Zcoordinate
    136.03783065511897,       !- Vertex 2 Xcoordinate
    0,                        !- Vertex 2 Ycoordinate
    0,                        !- Vertex 2 Zcoordinate
    136.03783065511897,       !- Vertex 3 Xcoordinate
    0,                        !- Vertex 3 Ycoordinate
    3.048,                    !- Vertex 3 Zcoordinate
    136.03783065511897,       !- Vertex 4 Xcoordinate
    18.056250151028287,       !- Vertex 4 Ycoordinate
    3.048;                    !- Vertex 4 Zcoordinate

BUILDINGSURFACE:DETAILED,
    2F_Area_A_Floor,          !- Name
    Floor,                    !- Surface Type
    ExtFloor,                 !- Construction Name
    2F_Area_A,                !- Zone Name
    ,                         !- Space Name
    Ground,                   !- Outside Boundary Condition
    ,                         !- Outside Boundary Condition Object
    NoSun,                    !- Sun Exposure
    NoWind,                   !- Wind Exposure
    autocalculate,            !- View Factor to Ground
    4,                        !- Number of Vertices
    0,                        !- Vertex 1 Xcoordinate
    0,                        !- Vertex 1 Ycoordinate
    3.9624,                   !- Vertex 1 Zcoordinate
    0,                        !- Vertex 2 Xcoordinate
    28.130936327827456,       !- Vertex 2 Ycoordinate
    3.9624,                   !- Vertex 2 Zcoordinate
    61.88805992122041,        !- Vertex 3 Xcoordinate
    28.130936327827456,       !- Vertex 3 Ycoordinate
    3.9624,                   !- Vertex 3 Zcoordinate
    61.88805992122041,        !- Vertex 4 Xcoordinate
    0,                        !- Vertex 4 Ycoordinate
    3.9624;                   !- Vertex 4 Zcoordinate

BUILDINGSURFACE:DETAILED,
    2F_Area_A_Roof,           !- Name
    Roof,                     !- Surface Type
    ExtRoof,                  !- Construction Name
    2F_Area_A,                !- Zone Name
    ,                         !- Space Name
    Outdoors,                 !- Outside Boundary Condition
    ,                         !- Outside Boundary Condition Object
    SunExposed,               !- Sun Exposure
    WindExposed,              !- Wind Exposure
    autocalculate,            !- View Factor to Ground
    4,                        !- Number of Vertices
    0,                        !- Vertex 1 Xcoordinate
    0,                        !- Vertex 1 Ycoordinate
    7.010400000000001,        !- Vertex 1 Zcoordinate
    61.88805992122041,        !- Vertex 2 Xcoordinate
    0,                        !- Vertex 2 Ycoordinate
    7.010400000000001,        !- Vertex 2 Zcoordinate
    61.88805992122041,        !- Vertex 3 Xcoordinate
    28.130936327827456,       !- Vertex 3 Ycoordinate
    7.010400000000001,        !- Vertex 3 Zcoordinate
    0,                        !- Vertex 4 Xcoordinate
    28.130936327827456,       !- Vertex 4 Ycoordinate
    7.010400000000001;        !- Vertex 4 Zcoordinate

BUILDINGSURFACE:DETAILED,
    2F_Area_A_S,              !- Name
    Wall,                     !- Surface Type
    ExtWall,                  !- Construction Name
    2F_Area_A,                !- Zone Name
    ,                         !- Space Name
    Outdoors,                 !- Outside Boundary Condition
    ,                         !- Outside Boundary Condition Object
    SunExposed,               !- Sun Exposure
    WindExposed,              !- Wind Exposure
    autocalculate,            !- View Factor to Ground
    4,                        !- Number of Vertices
    0,                        !- Vertex 1 Xcoordinate
    0,                        !- Vertex 1 Ycoordinate
    3.9624,                   !- Vertex 1 Zcoordinate
    61.88805992122041,        !- Vertex 2 Xcoordinate
    0,                        !- Vertex 2 Ycoordinate
    3.9624,                   !- Vertex 2 Zcoordinate
    61.88805992122041,        !- Vertex 3 Xcoordinate
    0,                        !- Vertex 3 Ycoordinate
    7.010400000000001,        !- Vertex 3 Zcoordinate
    0,                        !- Vertex 4 Xcoordinate
    0,                        !- Vertex 4 Ycoordinate
    7.010400000000001;        !- Vertex 4 Zcoordinate

BUILDINGSURFACE:DETAILED,
    2F_Area_A_N,              !- Name
    Wall,                     !- Surface Type
    ExtWall,                  !- Construction Name
    2F_Area_A,                !- Zone Name
    ,                         !- Space Name
    Outdoors,                 !- Outside Boundary Condition
    ,                         !- Outside Boundary Condition Object
    SunExposed,               !- Sun Exposure
    WindExposed,              !- Wind Exposure
    autocalculate,            !- View Factor to Ground
    4,                        !- Number of Vertices
    61.88805992122041,        !- Vertex 1 Xcoordinate
    28.130936327827456,       !- Vertex 1 Ycoordinate
    3.9624,                   !- Vertex 1 Zcoordinate
    0,                        !- Vertex 2 Xcoordinate
    28.130936327827456,       !- Vertex 2 Ycoordinate
    3.9624,                   !- Vertex 2 Zcoordinate
    0,                        !- Vertex 3 Xcoordinate
    28.130936327827456,       !- Vertex 3 Ycoordinate
    7.010400000000001,        !- Vertex 3 Zcoordinate
    61.88805992122041,        !- Vertex 4 Xcoordinate
    28.130936327827456,       !- Vertex 4 Ycoordinate
    7.010400000000001;        !- Vertex 4 Zcoordinate

BUILDINGSURFACE:DETAILED,
    2F_Area_A_E,              !- Name
    Wall,                     !- Surface Type
    ExtWall,                  !- Construction Name
    2F_Area_A,                !- Zone Name
    ,                         !- Space Name
    Outdoors,                 !- Outside Boundary Condition
    ,                         !- Outside Boundary Condition Object
    SunExposed,               !- Sun Exposure
    WindExposed,              !- Wind Exposure
    autocalculate,            !- View Factor to Ground
    4,                        !- Number of Vertices
    61.88805992122041,        !- Vertex 1 Xcoordinate
    0,                        !- Vertex 1 Ycoordinate
    3.9624,                   !- Vertex 1 Zcoordinate
    61.88805992122041,        !- Vertex 2 Xcoordinate
    28.130936327827456,       !- Vertex 2 Ycoordinate
    3.9624,                   !- Vertex 2 Zcoordinate
    61.88805992122041,        !- Vertex 3 Xcoordinate
    28.130936327827456,       !- Vertex 3 Ycoordinate
    7.010400000000001,        !- Vertex 3 Zcoordinate
    61.88805992122041,        !- Vertex 4 Xcoordinate
    0,                        !- Vertex 4 Ycoordinate
    7.010400000000001;        !- Vertex 4 Zcoordinate

BUILDINGSURFACE:DETAILED,
    2F_Area_A_W,              !- Name
    Wall,                     !- Surface Type
    ExtWall,                  !- Construction Name
    2F_Area_A,                !- Zone Name
    ,                         !- Space Name
    Outdoors,                 !- Outside Boundary Condition
    ,                         !- Outside Boundary Condition Object
    SunExposed,               !- Sun Exposure
    WindExposed,              !- Wind Exposure
    autocalculate,            !- View Factor to Ground
    4,                        !- Number of Vertices
    0,                        !- Vertex 1 Xcoordinate
    28.130936327827456,       !- Vertex 1 Ycoordinate
    3.9624,                   !- Vertex 1 Zcoordinate
    0,                        !- Vertex 2 Xcoordinate
    0,                        !- Vertex 2 Ycoordinate
    3.9624,                   !- Vertex 2 Zcoordinate
    0,                        !- Vertex 3 Xcoordinate
    0,                        !- Vertex 3 Ycoordinate
    7.010400000000001,        !- Vertex 3 Zcoordinate
    0,                        !- Vertex 4 Xcoordinate
    28.130936327827456,       !- Vertex 4 Ycoordinate
    7.010400000000001;        !- Vertex 4 Zcoordinate

BUILDINGSURFACE:DETAILED,
    2F_Area_B_Floor,          !- Name
    Floor,                    !- Surface Type
    ExtFloor,                 !- Construction Name
    2F_Area_B,                !- Zone Name
    ,                         !- Space Name
    Ground,                   !- Outside Boundary Condition
    ,                         !- Outside Boundary Condition Object
    NoSun,                    !- Sun Exposure
    NoWind,                   !- Wind Exposure
    autocalculate,            !- View Factor to Ground
    4,                        !- Number of Vertices
    63.88805992122041,        !- Vertex 1 Xcoordinate
    0,                        !- Vertex 1 Ycoordinate
    3.9624,                   !- Vertex 1 Zcoordinate
    63.88805992122041,        !- Vertex 2 Xcoordinate
    26.821795389033262,       !- Vertex 2 Ycoordinate
    3.9624,                   !- Vertex 2 Zcoordinate
    122.89600977709358,       !- Vertex 3 Xcoordinate
    26.821795389033262,       !- Vertex 3 Ycoordinate
    3.9624,                   !- Vertex 3 Zcoordinate
    122.89600977709358,       !- Vertex 4 Xcoordinate
    0,                        !- Vertex 4 Ycoordinate
    3.9624;                   !- Vertex 4 Zcoordinate

BUILDINGSURFACE:DETAILED,
    2F_Area_B_Roof,           !- Name
    Roof,                     !- Surface Type
    ExtRoof,                  !- Construction Name
    2F_Area_B,                !- Zone Name
    ,                         !- Space Name
    Outdoors,                 !- Outside Boundary Condition
    ,                         !- Outside Boundary Condition Object
    SunExposed,               !- Sun Exposure
    WindExposed,              !- Wind Exposure
    autocalculate,            !- View Factor to Ground
    4,                        !- Number of Vertices
    63.88805992122041,        !- Vertex 1 Xcoordinate
    0,                        !- Vertex 1 Ycoordinate
    7.010400000000001,        !- Vertex 1 Zcoordinate
    122.89600977709358,       !- Vertex 2 Xcoordinate
    0,                        !- Vertex 2 Ycoordinate
    7.010400000000001,        !- Vertex 2 Zcoordinate
    122.89600977709358,       !- Vertex 3 Xcoordinate
    26.821795389033262,       !- Vertex 3 Ycoordinate
    7.010400000000001,        !- Vertex 3 Zcoordinate
    63.88805992122041,        !- Vertex 4 Xcoordinate
    26.821795389033262,       !- Vertex 4 Ycoordinate
    7.010400000000001;        !- Vertex 4 Zcoordinate

BUILDINGSURFACE:DETAILED,
    2F_Area_B_S,              !- Name
    Wall,                     !- Surface Type
    ExtWall,                  !- Construction Name
    2F_Area_B,                !- Zone Name
    ,                         !- Space Name
    Outdoors,                 !- Outside Boundary Condition
    ,                         !- Outside Boundary Condition Object
    SunExposed,               !- Sun Exposure
    WindExposed,              !- Wind Exposure
    autocalculate,            !- View Factor to Ground
    4,                        !- Number of Vertices
    63.88805992122041,        !- Vertex 1 Xcoordinate
    0,                        !- Vertex 1 Ycoordinate
    3.9624,                   !- Vertex 1 Zcoordinate
    122.89600977709358,       !- Vertex 2 Xcoordinate
    0,                        !- Vertex 2 Ycoordinate
    3.9624,                   !- Vertex 2 Zcoordinate
    122.89600977709358,       !- Vertex 3 Xcoordinate
    0,                        !- Vertex 3 Ycoordinate
    7.010400000000001,        !- Vertex 3 Zcoordinate
    63.88805992122041,        !- Vertex 4 Xcoordinate
    0,                        !- Vertex 4 Ycoordinate
    7.010400000000001;        !- Vertex 4 Zcoordinate

BUILDINGSURFACE:DETAILED,
    2F_Area_B_N,              !- Name
    Wall,                     !- Surface Type
    ExtWall,                  !- Construction Name
    2F_Area_B,                !- Zone Name
    ,                         !- Space Name
    Outdoors,                 !- Outside Boundary Condition
    ,                         !- Outside Boundary Condition Object
    SunExposed,               !- Sun Exposure
    WindExposed,              !- Wind Exposure
    autocalculate,            !- View Factor to Ground
    4,                        !- Number of Vertices
    122.89600977709358,       !- Vertex 1 Xcoordinate
    26.821795389033262,       !- Vertex 1 Ycoordinate
    3.9624,                   !- Vertex 1 Zcoordinate
    63.88805992122041,        !- Vertex 2 Xcoordinate
    26.821795389033262,       !- Vertex 2 Ycoordinate
    3.9624,                   !- Vertex 2 Zcoordinate
    63.88805992122041,        !- Vertex 3 Xcoordinate
    26.821795389033262,       !- Vertex 3 Ycoordinate
    7.010400000000001,        !- Vertex 3 Zcoordinate
    122.89600977709358,       !- Vertex 4 Xcoordinate
    26.821795389033262,       !- Vertex 4 Ycoordinate
    7.010400000000001;        !- Vertex 4 Zcoordinate

BUILDINGSURFACE:DETAILED,
    2F_Area_B_E,              !- Name
    Wall,                     !- Surface Type
    ExtWall,                  !- Construction Name
    2F_Area_B,                !- Zone Name
    ,                         !- Space Name
    Outdoors,                 !- Outside Boundary Condition
    ,                         !- Outside Boundary Condition Object
    SunExposed,               !- Sun Exposure
    WindExposed,              !- Wind Exposure
    autocalculate,            !- View Factor to Ground
    4,                        !- Number of Vertices
    122.89600977709358,       !- Vertex 1 Xcoordinate
    0,                        !- Vertex 1 Ycoordinate
    3.9624,                   !- Vertex 1 Zcoordinate
    122.89600977709358,       !- Vertex 2 Xcoordinate
    26.821795389033262,       !- Vertex 2 Ycoordinate
    3.9624,                   !- Vertex 2 Zcoordinate
    122.89600977709358,       !- Vertex 3 Xcoordinate
    26.821795389033262,       !- Vertex 3 Ycoordinate
    7.010400000000001,        !- Vertex 3 Zcoordinate
    122.89600977709358,       !- Vertex 4 Xcoordinate
    0,                        !- Vertex 4 Ycoordinate
    7.010400000000001;        !- Vertex 4 Zcoordinate

BUILDINGSURFACE:DETAILED,
    2F_Area_B_W,              !- Name
    Wall,                     !- Surface Type
    ExtWall,                  !- Construction Name
    2F_Area_B,                !- Zone Name
    ,                         !- Space Name
    Outdoors,                 !- Outside Boundary Condition
    ,                         !- Outside Boundary Condition Object
    SunExposed,               !- Sun Exposure
    WindExposed,              !- Wind Exposure
    autocalculate,            !- View Factor to Ground
    4,                        !- Number of Vertices
    63.88805992122041,        !- Vertex 1 Xcoordinate
    26.821795389033262,       !- Vertex 1 Ycoordinate
    3.9624,                   !- Vertex 1 Zcoordinate
    63.88805992122041,        !- Vertex 2 Xcoordinate
    0,                        !- Vertex 2 Ycoordinate
    3.9624,                   !- Vertex 2 Zcoordinate
    63.88805992122041,        !- Vertex 3 Xcoordinate
    0,                        !- Vertex 3 Ycoordinate
    7.010400000000001,        !- Vertex 3 Zcoordinate
    63.88805992122041,        !- Vertex 4 Xcoordinate
    26.821795389033262,       !- Vertex 4 Ycoordinate
    7.010400000000001;        !- Vertex 4 Zcoordinate

FENESTRATIONSURFACE:DETAILED,
    1F_Library_IMC_S_Win,     !- Name
    Window,                   !- Surface Type
    ExtWindow,                !- Construction Name
    1F_Library_IMC_S,         !- Building Surface Name
    ,                         !- Outside Boundary Condition Object
    autocalculate,            !- View Factor to Ground
    ,                         !- Frame and Divider Name
    1,                        !- Multiplier
    4,                        !- Number of Vertices
    6.976239569060882,        !- Vertex 1 Xcoordinate
    80,                       !- Vertex 1 Ycoordinate
    0.438912,                 !- Vertex 1 Zcoordinate
    18.886892491847753,       !- Vertex 2 Xcoordinate
    80,                       !- Vertex 2 Ycoordinate
    0.438912,                 !- Vertex 2 Zcoordinate
    18.886892491847753,       !- Vertex 3 Xcoordinate
    80,                       !- Vertex 3 Ycoordinate
    3.218688,                 !- Vertex 3 Zcoordinate
    6.976239569060882,        !- Vertex 4 Xcoordinate
    80,                       !- Vertex 4 Ycoordinate
    3.218688;                 !- Vertex 4 Zcoordinate

FENESTRATIONSURFACE:DETAILED,
    1F_Library_IMC_N_Win,     !- Name
    Window,                   !- Surface Type
    ExtWindow,                !- Construction Name
    1F_Library_IMC_N,         !- Building Surface Name
    ,                         !- Outside Boundary Condition Object
    autocalculate,            !- View Factor to Ground
    ,                         !- Frame and Divider Name
    1,                        !- Multiplier
    4,                        !- Number of Vertices
    18.036131568791546,       !- Vertex 1 Xcoordinate
    94.36840670050479,        !- Vertex 1 Ycoordinate
    0.438912,                 !- Vertex 1 Zcoordinate
    7.827000492117083,        !- Vertex 2 Xcoordinate
    94.36840670050479,        !- Vertex 2 Ycoordinate
    0.438912,                 !- Vertex 2 Zcoordinate
    7.827000492117083,        !- Vertex 3 Xcoordinate
    94.36840670050479,        !- Vertex 3 Ycoordinate
    3.218688,                 !- Vertex 3 Zcoordinate
    18.036131568791546,       !- Vertex 4 Xcoordinate
    94.36840670050479,        !- Vertex 4 Ycoordinate
    3.218688;                 !- Vertex 4 Zcoordinate

FENESTRATIONSURFACE:DETAILED,
    1F_Library_IMC_E_Win,     !- Name
    Window,                   !- Surface Type
    ExtWindow,                !- Construction Name
    1F_Library_IMC_E,         !- Building Surface Name
    ,                         !- Outside Boundary Condition Object
    autocalculate,            !- View Factor to Ground
    ,                         !- Frame and Divider Name
    1,                        !- Multiplier
    4,                        !- Number of Vertices
    25.863132060908633,       !- Vertex 1 Xcoordinate
    84.112011128105,          !- Vertex 1 Ycoordinate
    0.438912,                 !- Vertex 1 Zcoordinate
    25.863132060908633,       !- Vertex 2 Xcoordinate
    90.25639557239981,        !- Vertex 2 Ycoordinate
    0.438912,                 !- Vertex 2 Zcoordinate
    25.863132060908633,       !- Vertex 3 Xcoordinate
    90.25639557239981,        !- Vertex 3 Ycoordinate
    3.218688,                 !- Vertex 3 Zcoordinate
    25.863132060908633,       !- Vertex 4 Xcoordinate
    84.112011128105,          !- Vertex 4 Ycoordinate
    3.218688;                 !- Vertex 4 Zcoordinate

FENESTRATIONSURFACE:DETAILED,
    1F_Library_IMC_W_Win,     !- Name
    Window,                   !- Surface Type
    ExtWindow,                !- Construction Name
    1F_Library_IMC_W,         !- Building Surface Name
    ,                         !- Outside Boundary Condition Object
    autocalculate,            !- View Factor to Ground
    ,                         !- Frame and Divider Name
    1,                        !- Multiplier
    4,                        !- Number of Vertices
    0,                        !- Vertex 1 Xcoordinate
    90.2563955723998,         !- Vertex 1 Ycoordinate
    0.438912,                 !- Vertex 1 Zcoordinate
    0,                        !- Vertex 2 Xcoordinate
    84.112011128105,          !- Vertex 2 Ycoordinate
    0.438912,                 !- Vertex 2 Zcoordinate
    0,                        !- Vertex 3 Xcoordinate
    84.112011128105,          !- Vertex 3 Ycoordinate
    3.218688,                 !- Vertex 3 Zcoordinate
    0,                        !- Vertex 4 Xcoordinate
    90.2563955723998,         !- Vertex 4 Ycoordinate
    3.218688;                 !- Vertex 4 Zcoordinate

FENESTRATIONSURFACE:DETAILED,
    1F_Cafe_Kitchen_S_Win,    !- Name
    Window,                   !- Surface Type
    ExtWindow,                !- Construction Name
    1F_Cafe_Kitchen_S,        !- Building Surface Name
    ,                         !- Outside Boundary Condition Object
    autocalculate,            !- View Factor to Ground
    ,                         !- Frame and Divider Name
    1,                        !- Multiplier
    4,                        !- Number of Vertices
    37.824274039816,          !- Vertex 1 Xcoordinate
    80,                       !- Vertex 1 Ycoordinate
    0.512064,                 !- Vertex 1 Zcoordinate
    53.12378473551149,        !- Vertex 2 Xcoordinate
    80,                       !- Vertex 2 Ycoordinate
    0.512064,                 !- Vertex 2 Zcoordinate
    53.12378473551149,        !- Vertex 3 Xcoordinate
    80,                       !- Vertex 3 Ycoordinate
    3.755136,                 !- Vertex 3 Zcoordinate
    37.824274039816,          !- Vertex 4 Xcoordinate
    80,                       !- Vertex 4 Ycoordinate
    3.755136;                 !- Vertex 4 Zcoordinate

FENESTRATIONSURFACE:DETAILED,
    1F_Cafe_Kitchen_N_Win,    !- Name
    Window,                   !- Surface Type
    ExtWindow,                !- Construction Name
    1F_Cafe_Kitchen_N,        !- Building Surface Name
    ,                         !- Outside Boundary Condition Object
    autocalculate,            !- View Factor to Ground
    ,                         !- Frame and Divider Name
    1,                        !- Multiplier
    4,                        !- Number of Vertices
    52.03096254296181,        !- Vertex 1 Xcoordinate
    98.45655258528345,        !- Vertex 1 Ycoordinate
    0.512064,                 !- Vertex 1 Zcoordinate
    38.917096232365665,       !- Vertex 2 Xcoordinate
    98.45655258528345,        !- Vertex 2 Ycoordinate
    0.512064,                 !- Vertex 2 Zcoordinate
    38.917096232365665,       !- Vertex 3 Xcoordinate
    98.45655258528345,        !- Vertex 3 Ycoordinate
    3.755136,                 !- Vertex 3 Zcoordinate
    52.03096254296181,        !- Vertex 4 Xcoordinate
    98.45655258528345,        !- Vertex 4 Ycoordinate
    3.755136;                 !- Vertex 4 Zcoordinate

FENESTRATIONSURFACE:DETAILED,
    1F_Cafe_Kitchen_E_Win,    !- Name
    Window,                   !- Surface Type
    ExtWindow,                !- Construction Name
    1F_Cafe_Kitchen_E,        !- Building Surface Name
    ,                         !- Outside Boundary Condition Object
    autocalculate,            !- View Factor to Ground
    ,                         !- Frame and Divider Name
    1,                        !- Multiplier
    4,                        !- Number of Vertices
    62.08492671441885,        !- Vertex 1 Xcoordinate
    85.28197393065678,        !- Vertex 1 Ycoordinate
    0.512064,                 !- Vertex 1 Zcoordinate
    62.08492671441885,        !- Vertex 2 Xcoordinate
    93.17457865462667,        !- Vertex 2 Ycoordinate
    0.512064,                 !- Vertex 2 Zcoordinate
    62.08492671441885,        !- Vertex 3 Xcoordinate
    93.17457865462667,        !- Vertex 3 Ycoordinate
    3.755136,                 !- Vertex 3 Zcoordinate
    62.08492671441885,        !- Vertex 4 Xcoordinate
    85.28197393065678,        !- Vertex 4 Ycoordinate
    3.755136;                 !- Vertex 4 Zcoordinate

FENESTRATIONSURFACE:DETAILED,
    1F_Cafe_Kitchen_W_Win,    !- Name
    Window,                   !- Surface Type
    ExtWindow,                !- Construction Name
    1F_Cafe_Kitchen_W,        !- Building Surface Name
    ,                         !- Outside Boundary Condition Object
    autocalculate,            !- View Factor to Ground
    ,                         !- Frame and Divider Name
    1,                        !- Multiplier
    4,                        !- Number of Vertices
    28.863132060908633,       !- Vertex 1 Xcoordinate
    93.17457865462667,        !- Vertex 1 Ycoordinate
    0.512064,                 !- Vertex 1 Zcoordinate
    28.863132060908633,       !- Vertex 2 Xcoordinate
    85.28197393065678,        !- Vertex 2 Ycoordinate
    0.512064,                 !- Vertex 2 Zcoordinate
    28.863132060908633,       !- Vertex 3 Xcoordinate
    85.28197393065678,        !- Vertex 3 Ycoordinate
    3.755136,                 !- Vertex 3 Zcoordinate
    28.863132060908633,       !- Vertex 4 Xcoordinate
    93.17457865462667,        !- Vertex 4 Ycoordinate
    3.755136;                 !- Vertex 4 Zcoordinate

FENESTRATIONSURFACE:DETAILED,
    1F_Gym_S_Win,             !- Name
    Window,                   !- Surface Type
    ExtWindow,                !- Construction Name
    1F_Gym_S,                 !- Building Surface Name
    ,                         !- Outside Boundary Condition Object
    autocalculate,            !- View Factor to Ground
    ,                         !- Frame and Divider Name
    1,                        !- Multiplier
    4,                        !- Number of Vertices
    73.50953636999681,        !- Vertex 1 Xcoordinate
    80,                       !- Vertex 1 Ycoordinate
    0.877824,                 !- Vertex 1 Zcoordinate
    87.89301626976406,        !- Vertex 2 Xcoordinate
    80,                       !- Vertex 2 Ycoordinate
    0.877824,                 !- Vertex 2 Zcoordinate
    87.89301626976406,        !- Vertex 3 Xcoordinate
    80,                       !- Vertex 3 Ycoordinate
    6.437376,                 !- Vertex 3 Zcoordinate
    73.50953636999681,        !- Vertex 4 Xcoordinate
    80,                       !- Vertex 4 Ycoordinate
    6.437376;                 !- Vertex 4 Zcoordinate

FENESTRATIONSURFACE:DETAILED,
    1F_Gym_N_Win,             !- Name
    Window,                   !- Surface Type
    ExtWindow,                !- Construction Name
    1F_Gym_N,                 !- Building Surface Name
    ,                         !- Outside Boundary Condition Object
    autocalculate,            !- View Factor to Ground
    ,                         !- Frame and Divider Name
    1,                        !- Multiplier
    4,                        !- Number of Vertices
    86.86562484835211,        !- Vertex 1 Xcoordinate
    102.30907086494511,       !- Vertex 1 Ycoordinate
    0.877824,                 !- Vertex 1 Zcoordinate
    74.53692779140876,        !- Vertex 2 Xcoordinate
    102.30907086494511,       !- Vertex 2 Ycoordinate
    0.877824,                 !- Vertex 2 Zcoordinate
    74.53692779140876,        !- Vertex 3 Xcoordinate
    102.30907086494511,       !- Vertex 3 Ycoordinate
    6.437376,                 !- Vertex 3 Zcoordinate
    86.86562484835211,        !- Vertex 4 Xcoordinate
    102.30907086494511,       !- Vertex 4 Ycoordinate
    6.437376;                 !- Vertex 4 Zcoordinate

FENESTRATIONSURFACE:DETAILED,
    1F_Gym_E_Win,             !- Name
    Window,                   !- Surface Type
    ExtWindow,                !- Construction Name
    1F_Gym_E,                 !- Building Surface Name
    ,                         !- Outside Boundary Condition Object
    autocalculate,            !- View Factor to Ground
    ,                         !- Frame and Divider Name
    1,                        !- Multiplier
    4,                        !- Number of Vertices
    96.31762592534201,        !- Vertex 1 Xcoordinate
    86.38450383305995,        !- Vertex 1 Ycoordinate
    0.877824,                 !- Vertex 1 Zcoordinate
    96.31762592534201,        !- Vertex 2 Xcoordinate
    95.92456703188516,        !- Vertex 2 Ycoordinate
    0.877824,                 !- Vertex 2 Zcoordinate
    96.31762592534201,        !- Vertex 3 Xcoordinate
    95.92456703188516,        !- Vertex 3 Ycoordinate
    6.437376,                 !- Vertex 3 Zcoordinate
    96.31762592534201,        !- Vertex 4 Xcoordinate
    86.38450383305995,        !- Vertex 4 Ycoordinate
    6.437376;                 !- Vertex 4 Zcoordinate

FENESTRATIONSURFACE:DETAILED,
    1F_Gym_W_Win,             !- Name
    Window,                   !- Surface Type
    ExtWindow,                !- Construction Name
    1F_Gym_W,                 !- Building Surface Name
    ,                         !- Outside Boundary Condition Object
    autocalculate,            !- View Factor to Ground
    ,                         !- Frame and Divider Name
    1,                        !- Multiplier
    4,                        !- Number of Vertices
    65.08492671441886,        !- Vertex 1 Xcoordinate
    95.92456703188516,        !- Vertex 1 Ycoordinate
    0.877824,                 !- Vertex 1 Zcoordinate
    65.08492671441886,        !- Vertex 2 Xcoordinate
    86.38450383305995,        !- Vertex 2 Ycoordinate
    0.877824,                 !- Vertex 2 Zcoordinate
    65.08492671441886,        !- Vertex 3 Xcoordinate
    86.38450383305995,        !- Vertex 3 Ycoordinate
    6.437376,                 !- Vertex 3 Zcoordinate
    65.08492671441886,        !- Vertex 4 Xcoordinate
    95.92456703188516,        !- Vertex 4 Ycoordinate
    6.437376;                 !- Vertex 4 Zcoordinate

FENESTRATIONSURFACE:DETAILED,
    1F_Area_A_S_Win,          !- Name
    Window,                   !- Surface Type
    ExtWindow,                !- Construction Name
    1F_Area_A_S,              !- Building Surface Name
    ,                         !- Outside Boundary Condition Object
    autocalculate,            !- View Factor to Ground
    ,                         !- Frame and Divider Name
    1,                        !- Multiplier
    4,                        !- Number of Vertices
    13.12309104715133,        !- Vertex 1 Xcoordinate
    0,                        !- Vertex 1 Ycoordinate
    0.36576,                  !- Vertex 1 Zcoordinate
    35.52836844472677,        !- Vertex 2 Xcoordinate
    0,                        !- Vertex 2 Ycoordinate
    0.36576,                  !- Vertex 2 Zcoordinate
    35.52836844472677,        !- Vertex 3 Xcoordinate
    0,                        !- Vertex 3 Ycoordinate
    2.68224,                  !- Vertex 3 Zcoordinate
    13.12309104715133,        !- Vertex 4 Xcoordinate
    0,                        !- Vertex 4 Ycoordinate
    2.68224;                  !- Vertex 4 Zcoordinate

FENESTRATIONSURFACE:DETAILED,
    1F_Area_A_N_Win,          !- Name
    Window,                   !- Surface Type
    ExtWindow,                !- Construction Name
    1F_Area_A_N,              !- Building Surface Name
    ,                         !- Outside Boundary Condition Object
    autocalculate,            !- View Factor to Ground
    ,                         !- Frame and Divider Name
    1,                        !- Multiplier
    4,                        !- Number of Vertices
    33.9279914877571,         !- Vertex 1 Xcoordinate
    22.1142997690355,         !- Vertex 1 Ycoordinate
    0.36576,                  !- Vertex 1 Zcoordinate
    14.723468004121003,       !- Vertex 2 Xcoordinate
    22.1142997690355,         !- Vertex 2 Ycoordinate
    0.36576,                  !- Vertex 2 Zcoordinate
    14.723468004121003,       !- Vertex 3 Xcoordinate
    22.1142997690355,         !- Vertex 3 Ycoordinate
    2.68224,                  !- Vertex 3 Zcoordinate
    33.9279914877571,         !- Vertex 4 Xcoordinate
    22.1142997690355,         !- Vertex 4 Ycoordinate
    2.68224;                  !- Vertex 4 Zcoordinate

FENESTRATIONSURFACE:DETAILED,
    1F_Area_A_E_Win,          !- Name
    Window,                   !- Surface Type
    ExtWindow,                !- Construction Name
    1F_Area_A_E,              !- Building Surface Name
    ,                         !- Outside Boundary Condition Object
    autocalculate,            !- View Factor to Ground
    ,                         !- Frame and Divider Name
    1,                        !- Multiplier
    4,                        !- Number of Vertices
    48.6514594918781,         !- Vertex 1 Xcoordinate
    6.328763420743713,        !- Vertex 1 Ycoordinate
    0.36576,                  !- Vertex 1 Zcoordinate
    48.6514594918781,         !- Vertex 2 Xcoordinate
    15.78553634829179,        !- Vertex 2 Ycoordinate
    0.36576,                  !- Vertex 2 Zcoordinate
    48.6514594918781,         !- Vertex 3 Xcoordinate
    15.78553634829179,        !- Vertex 3 Ycoordinate
    2.68224,                  !- Vertex 3 Zcoordinate
    48.6514594918781,         !- Vertex 4 Xcoordinate
    6.328763420743713,        !- Vertex 4 Ycoordinate
    2.68224;                  !- Vertex 4 Zcoordinate

FENESTRATIONSURFACE:DETAILED,
    1F_Area_A_W_Win,          !- Name
    Window,                   !- Surface Type
    ExtWindow,                !- Construction Name
    1F_Area_A_W,              !- Building Surface Name
    ,                         !- Outside Boundary Condition Object
    autocalculate,            !- View Factor to Ground
    ,                         !- Frame and Divider Name
    1,                        !- Multiplier
    4,                        !- Number of Vertices
    0,                        !- Vertex 1 Xcoordinate
    15.785536348291789,       !- Vertex 1 Ycoordinate
    0.36576,                  !- Vertex 1 Zcoordinate
    0,                        !- Vertex 2 Xcoordinate
    6.3287634207437105,       !- Vertex 2 Ycoordinate
    0.36576,                  !- Vertex 2 Zcoordinate
    0,                        !- Vertex 3 Xcoordinate
    6.3287634207437105,       !- Vertex 3 Ycoordinate
    2.68224,                  !- Vertex 3 Zcoordinate
    0,                        !- Vertex 4 Xcoordinate
    15.785536348291789,       !- Vertex 4 Ycoordinate
    2.68224;                  !- Vertex 4 Zcoordinate

FENESTRATIONSURFACE:DETAILED,
    1F_Area_B_S_Win,          !- Name
    Window,                   !- Surface Type
    ExtWindow,                !- Construction Name
    1F_Area_B_S,              !- Building Surface Name
    ,                         !- Outside Boundary Condition Object
    autocalculate,            !- View Factor to Ground
    ,                         !- Frame and Divider Name
    1,                        !- Multiplier
    4,                        !- Number of Vertices
    61.366418463080414,       !- Vertex 1 Xcoordinate
    0,                        !- Vertex 1 Ycoordinate
    0.36576,                  !- Vertex 1 Zcoordinate
    79.66025085293802,        !- Vertex 2 Xcoordinate
    0,                        !- Vertex 2 Ycoordinate
    0.36576,                  !- Vertex 2 Zcoordinate
    79.66025085293802,        !- Vertex 3 Xcoordinate
    0,                        !- Vertex 3 Ycoordinate
    2.68224,                  !- Vertex 3 Zcoordinate
    61.366418463080414,       !- Vertex 4 Xcoordinate
    0,                        !- Vertex 4 Ycoordinate
    2.68224;                  !- Vertex 4 Zcoordinate

FENESTRATIONSURFACE:DETAILED,
    1F_Area_B_N_Win,          !- Name
    Window,                   !- Surface Type
    ExtWindow,                !- Construction Name
    1F_Area_B_N,              !- Building Surface Name
    ,                         !- Outside Boundary Condition Object
    autocalculate,            !- View Factor to Ground
    ,                         !- Frame and Divider Name
    1,                        !- Multiplier
    4,                        !- Number of Vertices
    78.35354853937677,        !- Vertex 1 Xcoordinate
    18.056250151028287,       !- Vertex 1 Ycoordinate
    0.36576,                  !- Vertex 1 Zcoordinate
    62.67312077664167,        !- Vertex 2 Xcoordinate
    18.056250151028287,       !- Vertex 2 Ycoordinate
    0.36576,                  !- Vertex 2 Zcoordinate
    62.67312077664167,        !- Vertex 3 Xcoordinate
    18.056250151028287,       !- Vertex 3 Ycoordinate
    2.68224,                  !- Vertex 3 Zcoordinate
    78.35354853937677,        !- Vertex 4 Xcoordinate
    18.056250151028287,       !- Vertex 4 Ycoordinate
    2.68224;                  !- Vertex 4 Zcoordinate

FENESTRATIONSURFACE:DETAILED,
    1F_Area_B_E_Win,          !- Name
    Window,                   !- Surface Type
    ExtWindow,                !- Construction Name
    1F_Area_B_E,              !- Building Surface Name
    ,                         !- Outside Boundary Condition Object
    autocalculate,            !- View Factor to Ground
    ,                         !- Frame and Divider Name
    1,                        !- Multiplier
    4,                        !- Number of Vertices
    90.37520982414034,        !- Vertex 1 Xcoordinate
    5.167413694537701,        !- Vertex 1 Ycoordinate
    0.36576,                  !- Vertex 1 Zcoordinate
    90.37520982414034,        !- Vertex 2 Xcoordinate
    12.888836456490589,       !- Vertex 2 Ycoordinate
    0.36576,                  !- Vertex 2 Zcoordinate
    90.37520982414034,        !- Vertex 3 Xcoordinate
    12.888836456490589,       !- Vertex 3 Ycoordinate
    2.68224,                  !- Vertex 3 Zcoordinate
    90.37520982414034,        !- Vertex 4 Xcoordinate
    5.167413694537701,        !- Vertex 4 Ycoordinate
    2.68224;                  !- Vertex 4 Zcoordinate

FENESTRATIONSURFACE:DETAILED,
    1F_Area_B_W_Win,          !- Name
    Window,                   !- Surface Type
    ExtWindow,                !- Construction Name
    1F_Area_B_W,              !- Building Surface Name
    ,                         !- Outside Boundary Condition Object
    autocalculate,            !- View Factor to Ground
    ,                         !- Frame and Divider Name
    1,                        !- Multiplier
    4,                        !- Number of Vertices
    50.6514594918781,         !- Vertex 1 Xcoordinate
    12.888836456490587,       !- Vertex 1 Ycoordinate
    0.36576,                  !- Vertex 1 Zcoordinate
    50.6514594918781,         !- Vertex 2 Xcoordinate
    5.167413694537698,        !- Vertex 2 Ycoordinate
    0.36576,                  !- Vertex 2 Zcoordinate
    50.6514594918781,         !- Vertex 3 Xcoordinate
    5.167413694537698,        !- Vertex 3 Ycoordinate
    2.68224,                  !- Vertex 3 Zcoordinate
    50.6514594918781,         !- Vertex 4 Xcoordinate
    12.888836456490587,       !- Vertex 4 Ycoordinate
    2.68224;                  !- Vertex 4 Zcoordinate

FENESTRATIONSURFACE:DETAILED,
    1F_Area_C_S_Win,          !- Name
    Window,                   !- Surface Type
    ExtWindow,                !- Construction Name
    1F_Area_C_S,              !- Building Surface Name
    ,                         !- Outside Boundary Condition Object
    autocalculate,            !- View Factor to Ground
    ,                         !- Frame and Divider Name
    1,                        !- Multiplier
    4,                        !- Number of Vertices
    103.61315360091747,       !- Vertex 1 Xcoordinate
    0,                        !- Vertex 1 Ycoordinate
    0.36576,                  !- Vertex 1 Zcoordinate
    122.79988687834184,       !- Vertex 2 Xcoordinate
    0,                        !- Vertex 2 Ycoordinate
    0.36576,                  !- Vertex 2 Zcoordinate
    122.79988687834184,       !- Vertex 3 Xcoordinate
    0,                        !- Vertex 3 Ycoordinate
    2.68224,                  !- Vertex 3 Zcoordinate
    103.61315360091747,       !- Vertex 4 Xcoordinate
    0,                        !- Vertex 4 Ycoordinate
    2.68224;                  !- Vertex 4 Zcoordinate

FENESTRATIONSURFACE:DETAILED,
    1F_Area_C_N_Win,          !- Name
    Window,                   !- Surface Type
    ExtWindow,                !- Construction Name
    1F_Area_C_N,              !- Building Surface Name
    ,                         !- Outside Boundary Condition Object
    autocalculate,            !- View Factor to Ground
    ,                         !- Frame and Divider Name
    1,                        !- Multiplier
    4,                        !- Number of Vertices
    121.42940592995438,       !- Vertex 1 Xcoordinate
    18.937554923172105,       !- Vertex 1 Ycoordinate
    0.36576,                  !- Vertex 1 Zcoordinate
    104.98363454930492,       !- Vertex 2 Xcoordinate
    18.937554923172105,       !- Vertex 2 Ycoordinate
    0.36576,                  !- Vertex 2 Zcoordinate
    104.98363454930492,       !- Vertex 3 Xcoordinate
    18.937554923172105,       !- Vertex 3 Ycoordinate
    2.68224,                  !- Vertex 3 Zcoordinate
    121.42940592995438,       !- Vertex 4 Xcoordinate
    18.937554923172105,       !- Vertex 4 Ycoordinate
    2.68224;                  !- Vertex 4 Zcoordinate

FENESTRATIONSURFACE:DETAILED,
    1F_Area_C_E_Win,          !- Name
    Window,                   !- Surface Type
    ExtWindow,                !- Construction Name
    1F_Area_C_E,              !- Building Surface Name
    ,                         !- Outside Boundary Condition Object
    autocalculate,            !- View Factor to Ground
    ,                         !- Frame and Divider Name
    1,                        !- Multiplier
    4,                        !- Number of Vertices
    134.03783065511897,       !- Vertex 1 Xcoordinate
    5.419629204986754,        !- Vertex 1 Ycoordinate
    0.36576,                  !- Vertex 1 Zcoordinate
    134.03783065511897,       !- Vertex 2 Xcoordinate
    13.517925718185353,       !- Vertex 2 Ycoordinate
    0.36576,                  !- Vertex 2 Zcoordinate
    134.03783065511897,       !- Vertex 3 Xcoordinate
    13.517925718185353,       !- Vertex 3 Ycoordinate
    2.68224,                  !- Vertex 3 Zcoordinate
    134.03783065511897,       !- Vertex 4 Xcoordinate
    5.419629204986754,        !- Vertex 4 Ycoordinate
    2.68224;                  !- Vertex 4 Zcoordinate

FENESTRATIONSURFACE:DETAILED,
    1F_Area_C_W_Win,          !- Name
    Window,                   !- Surface Type
    ExtWindow,                !- Construction Name
    1F_Area_C_W,              !- Building Surface Name
    ,                         !- Outside Boundary Condition Object
    autocalculate,            !- View Factor to Ground
    ,                         !- Frame and Divider Name
    1,                        !- Multiplier
    4,                        !- Number of Vertices
    92.37520982414034,        !- Vertex 1 Xcoordinate
    13.51792571818535,        !- Vertex 1 Ycoordinate
    0.36576,                  !- Vertex 1 Zcoordinate
    92.37520982414034,        !- Vertex 2 Xcoordinate
    5.419629204986752,        !- Vertex 2 Ycoordinate
    0.36576,                  !- Vertex 2 Zcoordinate
    92.37520982414034,        !- Vertex 3 Xcoordinate
    5.419629204986752,        !- Vertex 3 Ycoordinate
    2.68224,                  !- Vertex 3 Zcoordinate
    92.37520982414034,        !- Vertex 4 Xcoordinate
    13.51792571818535,        !- Vertex 4 Ycoordinate
    2.68224;                  !- Vertex 4 Zcoordinate

FENESTRATIONSURFACE:DETAILED,
    1F_Area_D_S_Win,          !- Name
    Window,                   !- Surface Type
    ExtWindow,                !- Construction Name
    1F_Area_D_S,              !- Building Surface Name
    ,                         !- Outside Boundary Condition Object
    autocalculate,            !- View Factor to Ground
    ,                         !- Frame and Divider Name
    1,                        !- Multiplier
    4,                        !- Number of Vertices
    146.7527896263213,        !- Vertex 1 Xcoordinate
    0,                        !- Vertex 1 Ycoordinate
    0.36576,                  !- Vertex 1 Zcoordinate
    165.04662201617887,       !- Vertex 2 Xcoordinate
    0,                        !- Vertex 2 Ycoordinate
    0.36576,                  !- Vertex 2 Zcoordinate
    165.04662201617887,       !- Vertex 3 Xcoordinate
    0,                        !- Vertex 3 Ycoordinate
    2.68224,                  !- Vertex 3 Zcoordinate
    146.7527896263213,        !- Vertex 4 Xcoordinate
    0,                        !- Vertex 4 Ycoordinate
    2.68224;                  !- Vertex 4 Zcoordinate

FENESTRATIONSURFACE:DETAILED,
    1F_Area_D_N_Win,          !- Name
    Window,                   !- Surface Type
    ExtWindow,                !- Construction Name
    1F_Area_D_N,              !- Building Surface Name
    ,                         !- Outside Boundary Condition Object
    autocalculate,            !- View Factor to Ground
    ,                         !- Frame and Divider Name
    1,                        !- Multiplier
    4,                        !- Number of Vertices
    163.7399197026176,        !- Vertex 1 Xcoordinate
    18.056250151028287,       !- Vertex 1 Ycoordinate
    0.36576,                  !- Vertex 1 Zcoordinate
    148.05949193988255,       !- Vertex 2 Xcoordinate
    18.056250151028287,       !- Vertex 2 Ycoordinate
    0.36576,                  !- Vertex 2 Zcoordinate
    148.05949193988255,       !- Vertex 3 Xcoordinate
    18.056250151028287,       !- Vertex 3 Ycoordinate
    2.68224,                  !- Vertex 3 Zcoordinate
    163.7399197026176,        !- Vertex 4 Xcoordinate
    18.056250151028287,       !- Vertex 4 Ycoordinate
    2.68224;                  !- Vertex 4 Zcoordinate

FENESTRATIONSURFACE:DETAILED,
    1F_Area_D_E_Win,          !- Name
    Window,                   !- Surface Type
    ExtWindow,                !- Construction Name
    1F_Area_D_E,              !- Building Surface Name
    ,                         !- Outside Boundary Condition Object
    autocalculate,            !- View Factor to Ground
    ,                         !- Frame and Divider Name
    1,                        !- Multiplier
    4,                        !- Number of Vertices
    175.7615809873812,        !- Vertex 1 Xcoordinate
    5.167413694537701,        !- Vertex 1 Ycoordinate
    0.36576,                  !- Vertex 1 Zcoordinate
    175.7615809873812,        !- Vertex 2 Xcoordinate
    12.888836456490589,       !- Vertex 2 Ycoordinate
    0.36576,                  !- Vertex 2 Zcoordinate
    175.7615809873812,        !- Vertex 3 Xcoordinate
    12.888836456490589,       !- Vertex 3 Ycoordinate
    2.68224,                  !- Vertex 3 Zcoordinate
    175.7615809873812,        !- Vertex 4 Xcoordinate
    5.167413694537701,        !- Vertex 4 Ycoordinate
    2.68224;                  !- Vertex 4 Zcoordinate

FENESTRATIONSURFACE:DETAILED,
    1F_Area_D_W_Win,          !- Name
    Window,                   !- Surface Type
    ExtWindow,                !- Construction Name
    1F_Area_D_W,              !- Building Surface Name
    ,                         !- Outside Boundary Condition Object
    autocalculate,            !- View Factor to Ground
    ,                         !- Frame and Divider Name
    1,                        !- Multiplier
    4,                        !- Number of Vertices
    136.03783065511897,       !- Vertex 1 Xcoordinate
    12.888836456490587,       !- Vertex 1 Ycoordinate
    0.36576,                  !- Vertex 1 Zcoordinate
    136.03783065511897,       !- Vertex 2 Xcoordinate
    5.167413694537698,        !- Vertex 2 Ycoordinate
    0.36576,                  !- Vertex 2 Zcoordinate
    136.03783065511897,       !- Vertex 3 Xcoordinate
    5.167413694537698,        !- Vertex 3 Ycoordinate
    2.68224,                  !- Vertex 3 Zcoordinate
    136.03783065511897,       !- Vertex 4 Xcoordinate
    12.888836456490587,       !- Vertex 4 Ycoordinate
    2.68224;                  !- Vertex 4 Zcoordinate

FENESTRATIONSURFACE:DETAILED,
    2F_Area_A_S_Win,          !- Name
    Window,                   !- Surface Type
    ExtWindow,                !- Construction Name
    2F_Area_A_S,              !- Building Surface Name
    ,                         !- Outside Boundary Condition Object
    autocalculate,            !- View Factor to Ground
    ,                         !- Frame and Divider Name
    1,                        !- Multiplier
    4,                        !- Number of Vertices
    16.693489847171296,       !- Vertex 1 Xcoordinate
    0,                        !- Vertex 1 Ycoordinate
    4.3281600000000005,       !- Vertex 1 Zcoordinate
    45.19457007404912,        !- Vertex 2 Xcoordinate
    0,                        !- Vertex 2 Ycoordinate
    4.3281600000000005,       !- Vertex 2 Zcoordinate
    45.19457007404912,        !- Vertex 3 Xcoordinate
    0,                        !- Vertex 3 Ycoordinate
    6.644640000000001,        !- Vertex 3 Zcoordinate
    16.693489847171296,       !- Vertex 4 Xcoordinate
    0,                        !- Vertex 4 Ycoordinate
    6.644640000000001;        !- Vertex 4 Zcoordinate

FENESTRATIONSURFACE:DETAILED,
    2F_Area_A_N_Win,          !- Name
    Window,                   !- Surface Type
    ExtWindow,                !- Construction Name
    2F_Area_A_N,              !- Building Surface Name
    ,                         !- Outside Boundary Condition Object
    autocalculate,            !- View Factor to Ground
    ,                         !- Frame and Divider Name
    1,                        !- Multiplier
    4,                        !- Number of Vertices
    43.15877862927213,        !- Vertex 1 Xcoordinate
    28.130936327827456,       !- Vertex 1 Ycoordinate
    4.3281600000000005,       !- Vertex 1 Zcoordinate
    18.729281291948276,       !- Vertex 2 Xcoordinate
    28.130936327827456,       !- Vertex 2 Ycoordinate
    4.3281600000000005,       !- Vertex 2 Zcoordinate
    18.729281291948276,       !- Vertex 3 Xcoordinate
    28.130936327827456,       !- Vertex 3 Ycoordinate
    6.644640000000001,        !- Vertex 3 Zcoordinate
    43.15877862927213,        !- Vertex 4 Xcoordinate
    28.130936327827456,       !- Vertex 4 Ycoordinate
    6.644640000000001;        !- Vertex 4 Zcoordinate

FENESTRATIONSURFACE:DETAILED,
    2F_Area_A_E_Win,          !- Name
    Window,                   !- Surface Type
    ExtWindow,                !- Construction Name
    2F_Area_A_E,              !- Building Surface Name
    ,                         !- Outside Boundary Condition Object
    autocalculate,            !- View Factor to Ground
    ,                         !- Frame and Divider Name
    1,                        !- Multiplier
    4,                        !- Number of Vertices
    61.88805992122041,        !- Vertex 1 Xcoordinate
    8.050629804345359,        !- Vertex 1 Ycoordinate
    4.3281600000000005,       !- Vertex 1 Zcoordinate
    61.88805992122041,        !- Vertex 2 Xcoordinate
    20.0803065234821,         !- Vertex 2 Ycoordinate
    4.3281600000000005,       !- Vertex 2 Zcoordinate
    61.88805992122041,        !- Vertex 3 Xcoordinate
    20.0803065234821,         !- Vertex 3 Ycoordinate
    6.644640000000001,        !- Vertex 3 Zcoordinate
    61.88805992122041,        !- Vertex 4 Xcoordinate
    8.050629804345359,        !- Vertex 4 Ycoordinate
    6.644640000000001;        !- Vertex 4 Zcoordinate

FENESTRATIONSURFACE:DETAILED,
    2F_Area_A_W_Win,          !- Name
    Window,                   !- Surface Type
    ExtWindow,                !- Construction Name
    2F_Area_A_W,              !- Building Surface Name
    ,                         !- Outside Boundary Condition Object
    autocalculate,            !- View Factor to Ground
    ,                         !- Frame and Divider Name
    1,                        !- Multiplier
    4,                        !- Number of Vertices
    0,                        !- Vertex 1 Xcoordinate
    20.080306523482097,       !- Vertex 1 Ycoordinate
    4.3281600000000005,       !- Vertex 1 Zcoordinate
    0,                        !- Vertex 2 Xcoordinate
    8.050629804345355,        !- Vertex 2 Ycoordinate
    4.3281600000000005,       !- Vertex 2 Zcoordinate
    0,                        !- Vertex 3 Xcoordinate
    8.050629804345355,        !- Vertex 3 Ycoordinate
    6.644640000000001,        !- Vertex 3 Zcoordinate
    0,                        !- Vertex 4 Xcoordinate
    20.080306523482097,       !- Vertex 4 Ycoordinate
    6.644640000000001;        !- Vertex 4 Zcoordinate

FENESTRATIONSURFACE:DETAILED,
    2F_Area_B_S_Win,          !- Name
    Window,                   !- Surface Type
    ExtWindow,                !- Construction Name
    2F_Area_B_S,              !- Building Surface Name
    ,                         !- Outside Boundary Condition Object
    autocalculate,            !- View Factor to Ground
    ,                         !- Frame and Divider Name
    1,                        !- Multiplier
    4,                        !- Number of Vertices
    79.80467797444936,        !- Vertex 1 Xcoordinate
    0,                        !- Vertex 1 Ycoordinate
    4.3281600000000005,       !- Vertex 1 Zcoordinate
    106.97939172386464,       !- Vertex 2 Xcoordinate
    0,                        !- Vertex 2 Ycoordinate
    4.3281600000000005,       !- Vertex 2 Zcoordinate
    106.97939172386464,       !- Vertex 3 Xcoordinate
    0,                        !- Vertex 3 Ycoordinate
    6.644640000000001,        !- Vertex 3 Zcoordinate
    79.80467797444936,        !- Vertex 4 Xcoordinate
    0,                        !- Vertex 4 Ycoordinate
    6.644640000000001;        !- Vertex 4 Zcoordinate

FENESTRATIONSURFACE:DETAILED,
    2F_Area_B_N_Win,          !- Name
    Window,                   !- Surface Type
    ExtWindow,                !- Construction Name
    2F_Area_B_N,              !- Building Surface Name
    ,                         !- Outside Boundary Condition Object
    autocalculate,            !- View Factor to Ground
    ,                         !- Frame and Divider Name
    1,                        !- Multiplier
    4,                        !- Number of Vertices
    105.03834074176355,       !- Vertex 1 Xcoordinate
    26.821795389033262,       !- Vertex 1 Ycoordinate
    4.3281600000000005,       !- Vertex 1 Zcoordinate
    81.74572895655044,        !- Vertex 2 Xcoordinate
    26.821795389033262,       !- Vertex 2 Ycoordinate
    4.3281600000000005,       !- Vertex 2 Zcoordinate
    81.74572895655044,        !- Vertex 3 Xcoordinate
    26.821795389033262,       !- Vertex 3 Ycoordinate
    6.644640000000001,        !- Vertex 3 Zcoordinate
    105.03834074176355,       !- Vertex 4 Xcoordinate
    26.821795389033262,       !- Vertex 4 Ycoordinate
    6.644640000000001;        !- Vertex 4 Zcoordinate

FENESTRATIONSURFACE:DETAILED,
    2F_Area_B_E_Win,          !- Name
    Window,                   !- Surface Type
    ExtWindow,                !- Construction Name
    2F_Area_B_E,              !- Building Surface Name
    ,                         !- Outside Boundary Condition Object
    autocalculate,            !- View Factor to Ground
    ,                         !- Frame and Divider Name
    1,                        !- Multiplier
    4,                        !- Number of Vertices
    122.89600977709358,       !- Vertex 1 Xcoordinate
    7.675974338308862,        !- Vertex 1 Ycoordinate
    4.3281600000000005,       !- Vertex 1 Zcoordinate
    122.89600977709358,       !- Vertex 2 Xcoordinate
    19.145821050724404,       !- Vertex 2 Ycoordinate
    4.3281600000000005,       !- Vertex 2 Zcoordinate
    122.89600977709358,       !- Vertex 3 Xcoordinate
    19.145821050724404,       !- Vertex 3 Ycoordinate
    6.644640000000001,        !- Vertex 3 Zcoordinate
    122.89600977709358,       !- Vertex 4 Xcoordinate
    7.675974338308862,        !- Vertex 4 Ycoordinate
    6.644640000000001;        !- Vertex 4 Zcoordinate

FENESTRATIONSURFACE:DETAILED,
    2F_Area_B_W_Win,          !- Name
    Window,                   !- Surface Type
    ExtWindow,                !- Construction Name
    2F_Area_B_W,              !- Building Surface Name
    ,                         !- Outside Boundary Condition Object
    autocalculate,            !- View Factor to Ground
    ,                         !- Frame and Divider Name
    1,                        !- Multiplier
    4,                        !- Number of Vertices
    63.88805992122041,        !- Vertex 1 Xcoordinate
    19.1458210507244,         !- Vertex 1 Ycoordinate
    4.3281600000000005,       !- Vertex 1 Zcoordinate
    63.88805992122041,        !- Vertex 2 Xcoordinate
    7.675974338308858,        !- Vertex 2 Ycoordinate
    4.3281600000000005,       !- Vertex 2 Zcoordinate
    63.88805992122041,        !- Vertex 3 Xcoordinate
    7.675974338308858,        !- Vertex 3 Ycoordinate
    6.644640000000001,        !- Vertex 3 Zcoordinate
    63.88805992122041,        !- Vertex 4 Xcoordinate
    19.1458210507244,         !- Vertex 4 Ycoordinate
    6.644640000000001;        !- Vertex 4 Zcoordinate

PEOPLE,
    1F_Library_IMC_People,    !- Name
    1F_Library_IMC,           !- Zone or ZoneList or Space or SpaceList Name
    SCH_Occ_Library,          !- Number of People Schedule Name
    People/Area,              !- Number of People Calculation Method
    ,                         !- Number of People
    0.012,                    !- People per Floor Area
    ,                         !- Floor Area per Person
    0.3,                      !- Fraction Radiant
    autocalculate,            !- Sensible Heat Fraction
    SCH_Activity,             !- Activity Level Schedule Name
    3.82e-08,                 !- Carbon Dioxide Generation Rate
    No,                       !- Enable ASHRAE 55 Comfort Warnings
    EnclosureAveraged,        !- Mean Radiant Temperature Calculation Type
    ,                         !- Surface NameAngle Factor List Name
    ,                         !- Work Efficiency Schedule Name
    ClothingInsulationSchedule,    !- Clothing Insulation Calculation Method
    ,                         !- Clothing Insulation Calculation Method Schedule Name
    ,                         !- Clothing Insulation Schedule Name
    ,                         !- Air Velocity Schedule Name
    ,                         !- Thermal Comfort Model 1 Type
    ,                         !- Thermal Comfort Model 2 Type
    ,                         !- Thermal Comfort Model 3 Type
    ,                         !- Thermal Comfort Model 4 Type
    ,                         !- Thermal Comfort Model 5 Type
    ,                         !- Thermal Comfort Model 6 Type
    ,                         !- Thermal Comfort Model 7 Type
    ,                         !- Ankle Level Air Velocity Schedule Name
    15.56,                    !- Cold Stress Temperature Threshold
    30;                       !- Heat Stress Temperature Threshold

PEOPLE,
    1F_Cafe_Kitchen_People,    !- Name
    1F_Cafe_Kitchen,          !- Zone or ZoneList or Space or SpaceList Name
    SCH_Occ_Cafe,             !- Number of People Schedule Name
    People/Area,              !- Number of People Calculation Method
    ,                         !- Number of People
    0.18,                     !- People per Floor Area
    ,                         !- Floor Area per Person
    0.3,                      !- Fraction Radiant
    autocalculate,            !- Sensible Heat Fraction
    SCH_Activity_Cafe,        !- Activity Level Schedule Name
    3.82e-08,                 !- Carbon Dioxide Generation Rate
    No,                       !- Enable ASHRAE 55 Comfort Warnings
    EnclosureAveraged,        !- Mean Radiant Temperature Calculation Type
    ,                         !- Surface NameAngle Factor List Name
    ,                         !- Work Efficiency Schedule Name
    ClothingInsulationSchedule,    !- Clothing Insulation Calculation Method
    ,                         !- Clothing Insulation Calculation Method Schedule Name
    ,                         !- Clothing Insulation Schedule Name
    ,                         !- Air Velocity Schedule Name
    ,                         !- Thermal Comfort Model 1 Type
    ,                         !- Thermal Comfort Model 2 Type
    ,                         !- Thermal Comfort Model 3 Type
    ,                         !- Thermal Comfort Model 4 Type
    ,                         !- Thermal Comfort Model 5 Type
    ,                         !- Thermal Comfort Model 6 Type
    ,                         !- Thermal Comfort Model 7 Type
    ,                         !- Ankle Level Air Velocity Schedule Name
    15.56,                    !- Cold Stress Temperature Threshold
    30;                       !- Heat Stress Temperature Threshold

PEOPLE,
    1F_Gym_People,            !- Name
    1F_Gym,                   !- Zone or ZoneList or Space or SpaceList Name
    SCH_Occ_Gym,              !- Number of People Schedule Name
    People/Area,              !- Number of People Calculation Method
    ,                         !- Number of People
    0.008,                    !- People per Floor Area
    ,                         !- Floor Area per Person
    0.3,                      !- Fraction Radiant
    autocalculate,            !- Sensible Heat Fraction
    SCH_Activity_Gym,         !- Activity Level Schedule Name
    3.82e-08,                 !- Carbon Dioxide Generation Rate
    No,                       !- Enable ASHRAE 55 Comfort Warnings
    EnclosureAveraged,        !- Mean Radiant Temperature Calculation Type
    ,                         !- Surface NameAngle Factor List Name
    ,                         !- Work Efficiency Schedule Name
    ClothingInsulationSchedule,    !- Clothing Insulation Calculation Method
    ,                         !- Clothing Insulation Calculation Method Schedule Name
    ,                         !- Clothing Insulation Schedule Name
    ,                         !- Air Velocity Schedule Name
    ,                         !- Thermal Comfort Model 1 Type
    ,                         !- Thermal Comfort Model 2 Type
    ,                         !- Thermal Comfort Model 3 Type
    ,                         !- Thermal Comfort Model 4 Type
    ,                         !- Thermal Comfort Model 5 Type
    ,                         !- Thermal Comfort Model 6 Type
    ,                         !- Thermal Comfort Model 7 Type
    ,                         !- Ankle Level Air Velocity Schedule Name
    15.56,                    !- Cold Stress Temperature Threshold
    30;                       !- Heat Stress Temperature Threshold

PEOPLE,
    1F_Area_A_People,         !- Name
    1F_Area_A,                !- Zone or ZoneList or Space or SpaceList Name
    SCH_Occ_Class,            !- Number of People Schedule Name
    People/Area,              !- Number of People Calculation Method
    ,                         !- Number of People
    0.045,                    !- People per Floor Area
    ,                         !- Floor Area per Person
    0.3,                      !- Fraction Radiant
    autocalculate,            !- Sensible Heat Fraction
    SCH_Activity,             !- Activity Level Schedule Name
    3.82e-08,                 !- Carbon Dioxide Generation Rate
    No,                       !- Enable ASHRAE 55 Comfort Warnings
    EnclosureAveraged,        !- Mean Radiant Temperature Calculation Type
    ,                         !- Surface NameAngle Factor List Name
    ,                         !- Work Efficiency Schedule Name
    ClothingInsulationSchedule,    !- Clothing Insulation Calculation Method
    ,                         !- Clothing Insulation Calculation Method Schedule Name
    ,                         !- Clothing Insulation Schedule Name
    ,                         !- Air Velocity Schedule Name
    ,                         !- Thermal Comfort Model 1 Type
    ,                         !- Thermal Comfort Model 2 Type
    ,                         !- Thermal Comfort Model 3 Type
    ,                         !- Thermal Comfort Model 4 Type
    ,                         !- Thermal Comfort Model 5 Type
    ,                         !- Thermal Comfort Model 6 Type
    ,                         !- Thermal Comfort Model 7 Type
    ,                         !- Ankle Level Air Velocity Schedule Name
    15.56,                    !- Cold Stress Temperature Threshold
    30;                       !- Heat Stress Temperature Threshold

PEOPLE,
    1F_Area_B_People,         !- Name
    1F_Area_B,                !- Zone or ZoneList or Space or SpaceList Name
    SCH_Occ_Class,            !- Number of People Schedule Name
    People/Area,              !- Number of People Calculation Method
    ,                         !- Number of People
    0.045,                    !- People per Floor Area
    ,                         !- Floor Area per Person
    0.3,                      !- Fraction Radiant
    autocalculate,            !- Sensible Heat Fraction
    SCH_Activity,             !- Activity Level Schedule Name
    3.82e-08,                 !- Carbon Dioxide Generation Rate
    No,                       !- Enable ASHRAE 55 Comfort Warnings
    EnclosureAveraged,        !- Mean Radiant Temperature Calculation Type
    ,                         !- Surface NameAngle Factor List Name
    ,                         !- Work Efficiency Schedule Name
    ClothingInsulationSchedule,    !- Clothing Insulation Calculation Method
    ,                         !- Clothing Insulation Calculation Method Schedule Name
    ,                         !- Clothing Insulation Schedule Name
    ,                         !- Air Velocity Schedule Name
    ,                         !- Thermal Comfort Model 1 Type
    ,                         !- Thermal Comfort Model 2 Type
    ,                         !- Thermal Comfort Model 3 Type
    ,                         !- Thermal Comfort Model 4 Type
    ,                         !- Thermal Comfort Model 5 Type
    ,                         !- Thermal Comfort Model 6 Type
    ,                         !- Thermal Comfort Model 7 Type
    ,                         !- Ankle Level Air Velocity Schedule Name
    15.56,                    !- Cold Stress Temperature Threshold
    30;                       !- Heat Stress Temperature Threshold

PEOPLE,
    1F_Area_C_People,         !- Name
    1F_Area_C,                !- Zone or ZoneList or Space or SpaceList Name
    SCH_Occ_Class,            !- Number of People Schedule Name
    People/Area,              !- Number of People Calculation Method
    ,                         !- Number of People
    0.045,                    !- People per Floor Area
    ,                         !- Floor Area per Person
    0.3,                      !- Fraction Radiant
    autocalculate,            !- Sensible Heat Fraction
    SCH_Activity,             !- Activity Level Schedule Name
    3.82e-08,                 !- Carbon Dioxide Generation Rate
    No,                       !- Enable ASHRAE 55 Comfort Warnings
    EnclosureAveraged,        !- Mean Radiant Temperature Calculation Type
    ,                         !- Surface NameAngle Factor List Name
    ,                         !- Work Efficiency Schedule Name
    ClothingInsulationSchedule,    !- Clothing Insulation Calculation Method
    ,                         !- Clothing Insulation Calculation Method Schedule Name
    ,                         !- Clothing Insulation Schedule Name
    ,                         !- Air Velocity Schedule Name
    ,                         !- Thermal Comfort Model 1 Type
    ,                         !- Thermal Comfort Model 2 Type
    ,                         !- Thermal Comfort Model 3 Type
    ,                         !- Thermal Comfort Model 4 Type
    ,                         !- Thermal Comfort Model 5 Type
    ,                         !- Thermal Comfort Model 6 Type
    ,                         !- Thermal Comfort Model 7 Type
    ,                         !- Ankle Level Air Velocity Schedule Name
    15.56,                    !- Cold Stress Temperature Threshold
    30;                       !- Heat Stress Temperature Threshold

PEOPLE,
    1F_Area_D_People,         !- Name
    1F_Area_D,                !- Zone or ZoneList or Space or SpaceList Name
    SCH_Occ_Class,            !- Number of People Schedule Name
    People/Area,              !- Number of People Calculation Method
    ,                         !- Number of People
    0.045,                    !- People per Floor Area
    ,                         !- Floor Area per Person
    0.3,                      !- Fraction Radiant
    autocalculate,            !- Sensible Heat Fraction
    SCH_Activity,             !- Activity Level Schedule Name
    3.82e-08,                 !- Carbon Dioxide Generation Rate
    No,                       !- Enable ASHRAE 55 Comfort Warnings
    EnclosureAveraged,        !- Mean Radiant Temperature Calculation Type
    ,                         !- Surface NameAngle Factor List Name
    ,                         !- Work Efficiency Schedule Name
    ClothingInsulationSchedule,    !- Clothing Insulation Calculation Method
    ,                         !- Clothing Insulation Calculation Method Schedule Name
    ,                         !- Clothing Insulation Schedule Name
    ,                         !- Air Velocity Schedule Name
    ,                         !- Thermal Comfort Model 1 Type
    ,                         !- Thermal Comfort Model 2 Type
    ,                         !- Thermal Comfort Model 3 Type
    ,                         !- Thermal Comfort Model 4 Type
    ,                         !- Thermal Comfort Model 5 Type
    ,                         !- Thermal Comfort Model 6 Type
    ,                         !- Thermal Comfort Model 7 Type
    ,                         !- Ankle Level Air Velocity Schedule Name
    15.56,                    !- Cold Stress Temperature Threshold
    30;                       !- Heat Stress Temperature Threshold

PEOPLE,
    2F_Area_A_People,         !- Name
    2F_Area_A,                !- Zone or ZoneList or Space or SpaceList Name
    SCH_Occ_Class,            !- Number of People Schedule Name
    People/Area,              !- Number of People Calculation Method
    ,                         !- Number of People
    0.045,                    !- People per Floor Area
    ,                         !- Floor Area per Person
    0.3,                      !- Fraction Radiant
    autocalculate,            !- Sensible Heat Fraction
    SCH_Activity,             !- Activity Level Schedule Name
    3.82e-08,                 !- Carbon Dioxide Generation Rate
    No,                       !- Enable ASHRAE 55 Comfort Warnings
    EnclosureAveraged,        !- Mean Radiant Temperature Calculation Type
    ,                         !- Surface NameAngle Factor List Name
    ,                         !- Work Efficiency Schedule Name
    ClothingInsulationSchedule,    !- Clothing Insulation Calculation Method
    ,                         !- Clothing Insulation Calculation Method Schedule Name
    ,                         !- Clothing Insulation Schedule Name
    ,                         !- Air Velocity Schedule Name
    ,                         !- Thermal Comfort Model 1 Type
    ,                         !- Thermal Comfort Model 2 Type
    ,                         !- Thermal Comfort Model 3 Type
    ,                         !- Thermal Comfort Model 4 Type
    ,                         !- Thermal Comfort Model 5 Type
    ,                         !- Thermal Comfort Model 6 Type
    ,                         !- Thermal Comfort Model 7 Type
    ,                         !- Ankle Level Air Velocity Schedule Name
    15.56,                    !- Cold Stress Temperature Threshold
    30;                       !- Heat Stress Temperature Threshold

PEOPLE,
    2F_Area_B_People,         !- Name
    2F_Area_B,                !- Zone or ZoneList or Space or SpaceList Name
    SCH_Occ_Class,            !- Number of People Schedule Name
    People/Area,              !- Number of People Calculation Method
    ,                         !- Number of People
    0.045,                    !- People per Floor Area
    ,                         !- Floor Area per Person
    0.3,                      !- Fraction Radiant
    autocalculate,            !- Sensible Heat Fraction
    SCH_Activity,             !- Activity Level Schedule Name
    3.82e-08,                 !- Carbon Dioxide Generation Rate
    No,                       !- Enable ASHRAE 55 Comfort Warnings
    EnclosureAveraged,        !- Mean Radiant Temperature Calculation Type
    ,                         !- Surface NameAngle Factor List Name
    ,                         !- Work Efficiency Schedule Name
    ClothingInsulationSchedule,    !- Clothing Insulation Calculation Method
    ,                         !- Clothing Insulation Calculation Method Schedule Name
    ,                         !- Clothing Insulation Schedule Name
    ,                         !- Air Velocity Schedule Name
    ,                         !- Thermal Comfort Model 1 Type
    ,                         !- Thermal Comfort Model 2 Type
    ,                         !- Thermal Comfort Model 3 Type
    ,                         !- Thermal Comfort Model 4 Type
    ,                         !- Thermal Comfort Model 5 Type
    ,                         !- Thermal Comfort Model 6 Type
    ,                         !- Thermal Comfort Model 7 Type
    ,                         !- Ankle Level Air Velocity Schedule Name
    15.56,                    !- Cold Stress Temperature Threshold
    30;                       !- Heat Stress Temperature Threshold

LIGHTS,
    1F_Library_IMC_Lights,    !- Name
    1F_Library_IMC,           !- Zone or ZoneList or Space or SpaceList Name
    SCH_Lights,               !- Schedule Name
    Watts/Area,               !- Design Level Calculation Method
    ,                         !- Lighting Level
    8.71876,                  !- Watts per Floor Area
    ,                         !- Watts per Person
    0,                        !- Return Air Fraction
    0.2,                      !- Fraction Radiant
    0.2,                      !- Fraction Visible
    1,                        !- Fraction Replaceable
    General,                  !- EndUse Subcategory
    No,                       !- Return Air Fraction Calculated from Plenum Temperature
    0,                        !- Return Air Fraction Function of Plenum Temperature Coefficient 1
    0;                        !- Return Air Fraction Function of Plenum Temperature Coefficient 2

LIGHTS,
    1F_Cafe_Kitchen_Lights,    !- Name
    1F_Cafe_Kitchen,          !- Zone or ZoneList or Space or SpaceList Name
    SCH_Lights,               !- Schedule Name
    Watts/Area,               !- Design Level Calculation Method
    ,                         !- Lighting Level
    7.75001,                  !- Watts per Floor Area
    ,                         !- Watts per Person
    0,                        !- Return Air Fraction
    0.2,                      !- Fraction Radiant
    0.2,                      !- Fraction Visible
    1,                        !- Fraction Replaceable
    General,                  !- EndUse Subcategory
    No,                       !- Return Air Fraction Calculated from Plenum Temperature
    0,                        !- Return Air Fraction Function of Plenum Temperature Coefficient 1
    0;                        !- Return Air Fraction Function of Plenum Temperature Coefficient 2

LIGHTS,
    1F_Gym_Lights,            !- Name
    1F_Gym,                   !- Zone or ZoneList or Space or SpaceList Name
    SCH_Lights_Gym,           !- Schedule Name
    Watts/Area,               !- Design Level Calculation Method
    ,                         !- Lighting Level
    6.29688,                 !- Watts per Floor Area
    ,                         !- Watts per Person
    0,                        !- Return Air Fraction
    0.2,                      !- Fraction Radiant
    0.2,                      !- Fraction Visible
    1,                        !- Fraction Replaceable
    General,                  !- EndUse Subcategory
    No,                       !- Return Air Fraction Calculated from Plenum Temperature
    0,                        !- Return Air Fraction Function of Plenum Temperature Coefficient 1
    0;                        !- Return Air Fraction Function of Plenum Temperature Coefficient 2

LIGHTS,
    1F_Area_A_Lights,         !- Name
    1F_Area_A,                !- Zone or ZoneList or Space or SpaceList Name
    SCH_Lights,               !- Schedule Name
    Watts/Area,               !- Design Level Calculation Method
    ,                         !- Lighting Level
    7.75001,                  !- Watts per Floor Area
    ,                         !- Watts per Person
    0,                        !- Return Air Fraction
    0.2,                      !- Fraction Radiant
    0.2,                      !- Fraction Visible
    1,                        !- Fraction Replaceable
    General,                  !- EndUse Subcategory
    No,                       !- Return Air Fraction Calculated from Plenum Temperature
    0,                        !- Return Air Fraction Function of Plenum Temperature Coefficient 1
    0;                        !- Return Air Fraction Function of Plenum Temperature Coefficient 2

LIGHTS,
    1F_Area_B_Lights,         !- Name
    1F_Area_B,                !- Zone or ZoneList or Space or SpaceList Name
    SCH_Lights,               !- Schedule Name
    Watts/Area,               !- Design Level Calculation Method
    ,                         !- Lighting Level
    7.75001,                  !- Watts per Floor Area
    ,                         !- Watts per Person
    0,                        !- Return Air Fraction
    0.2,                      !- Fraction Radiant
    0.2,                      !- Fraction Visible
    1,                        !- Fraction Replaceable
    General,                  !- EndUse Subcategory
    No,                       !- Return Air Fraction Calculated from Plenum Temperature
    0,                        !- Return Air Fraction Function of Plenum Temperature Coefficient 1
    0;                        !- Return Air Fraction Function of Plenum Temperature Coefficient 2

LIGHTS,
    1F_Area_C_Lights,         !- Name
    1F_Area_C,                !- Zone or ZoneList or Space or SpaceList Name
    SCH_Lights,               !- Schedule Name
    Watts/Area,               !- Design Level Calculation Method
    ,                         !- Lighting Level
    7.75001,                  !- Watts per Floor Area
    ,                         !- Watts per Person
    0,                        !- Return Air Fraction
    0.2,                      !- Fraction Radiant
    0.2,                      !- Fraction Visible
    1,                        !- Fraction Replaceable
    General,                  !- EndUse Subcategory
    No,                       !- Return Air Fraction Calculated from Plenum Temperature
    0,                        !- Return Air Fraction Function of Plenum Temperature Coefficient 1
    0;                        !- Return Air Fraction Function of Plenum Temperature Coefficient 2

LIGHTS,
    1F_Area_D_Lights,         !- Name
    1F_Area_D,                !- Zone or ZoneList or Space or SpaceList Name
    SCH_Lights,               !- Schedule Name
    Watts/Area,               !- Design Level Calculation Method
    ,                         !- Lighting Level
    7.75001,                  !- Watts per Floor Area
    ,                         !- Watts per Person
    0,                        !- Return Air Fraction
    0.2,                      !- Fraction Radiant
    0.2,                      !- Fraction Visible
    1,                        !- Fraction Replaceable
    General,                  !- EndUse Subcategory
    No,                       !- Return Air Fraction Calculated from Plenum Temperature
    0,                        !- Return Air Fraction Function of Plenum Temperature Coefficient 1
    0;                        !- Return Air Fraction Function of Plenum Temperature Coefficient 2

LIGHTS,
    2F_Area_A_Lights,         !- Name
    2F_Area_A,                !- Zone or ZoneList or Space or SpaceList Name
    SCH_Lights,               !- Schedule Name
    Watts/Area,               !- Design Level Calculation Method
    ,                         !- Lighting Level
    7.75001,                  !- Watts per Floor Area
    ,                         !- Watts per Person
    0,                        !- Return Air Fraction
    0.2,                      !- Fraction Radiant
    0.2,                      !- Fraction Visible
    1,                        !- Fraction Replaceable
    General,                  !- EndUse Subcategory
    No,                       !- Return Air Fraction Calculated from Plenum Temperature
    0,                        !- Return Air Fraction Function of Plenum Temperature Coefficient 1
    0;                        !- Return Air Fraction Function of Plenum Temperature Coefficient 2

LIGHTS,
    2F_Area_B_Lights,         !- Name
    2F_Area_B,                !- Zone or ZoneList or Space or SpaceList Name
    SCH_Lights,               !- Schedule Name
    Watts/Area,               !- Design Level Calculation Method
    ,                         !- Lighting Level
    7.75001,                  !- Watts per Floor Area
    ,                         !- Watts per Person
    0,                        !- Return Air Fraction
    0.2,                      !- Fraction Radiant
    0.2,                      !- Fraction Visible
    1,                        !- Fraction Replaceable
    General,                  !- EndUse Subcategory
    No,                       !- Return Air Fraction Calculated from Plenum Temperature
    0,                        !- Return Air Fraction Function of Plenum Temperature Coefficient 1
    0;                        !- Return Air Fraction Function of Plenum Temperature Coefficient 2

ELECTRICEQUIPMENT,
    1F_Library_IMC_Equip,     !- Name
    1F_Library_IMC,           !- Zone or ZoneList or Space or SpaceList Name
    SCH_Equip,                !- Schedule Name
    Watts/Area,               !- Design Level Calculation Method
    ,                         !- Design Level
    9.68751,                  !- Watts per Floor Area
    ,                         !- Watts per Person
    0,                        !- Fraction Latent
    0.3,                      !- Fraction Radiant
    0,                        !- Fraction Lost
    General;                  !- EndUse Subcategory

ELECTRICEQUIPMENT,
    1F_Library_IMC_FanProxy,    !- Name
    1F_Library_IMC,           !- Zone or ZoneList or Space or SpaceList Name
    SCH_HVAC,                 !- Schedule Name
    Watts/Area,               !- Design Level Calculation Method
    ,                         !- Design Level
    1.35000,                      !- Watts per Floor Area
    ,                         !- Watts per Person
    0,                        !- Fraction Latent
    0,                        !- Fraction Radiant
    0,                        !- Fraction Lost
    Fans;                     !- EndUse Subcategory

ELECTRICEQUIPMENT,
    1F_Cafe_Kitchen_Equip,    !- Name
    1F_Cafe_Kitchen,          !- Zone or ZoneList or Space or SpaceList Name
    SCH_Equip,                !- Schedule Name
    Watts/Area,               !- Design Level Calculation Method
    ,                         !- Design Level
    4.84375,                  !- Watts per Floor Area
    ,                         !- Watts per Person
    0,                        !- Fraction Latent
    0.3,                      !- Fraction Radiant
    0,                        !- Fraction Lost
    General;                  !- EndUse Subcategory

ELECTRICEQUIPMENT,
    1F_Cafe_Kitchen_Kitchen,    !- Name
    1F_Cafe_Kitchen,          !- Zone or ZoneList or Space or SpaceList Name
    SCH_Kitchen,              !- Schedule Name
    Watts/Area,               !- Design Level Calculation Method
    ,                         !- Design Level
    24.21878,                 !- Watts per Floor Area
    ,                         !- Watts per Person
    0.1,                      !- Fraction Latent
    0.2,                      !- Fraction Radiant
    0.3,                      !- Fraction Lost
    Kitchen;                  !- EndUse Subcategory

ELECTRICEQUIPMENT,
    1F_Cafe_Kitchen_FanProxy,    !- Name
    1F_Cafe_Kitchen,          !- Zone or ZoneList or Space or SpaceList Name
    SCH_HVAC,                 !- Schedule Name
    Watts/Area,               !- Design Level Calculation Method
    ,                         !- Design Level
    1.62000,                      !- Watts per Floor Area
    ,                         !- Watts per Person
    0,                        !- Fraction Latent
    0,                        !- Fraction Radiant
    0,                        !- Fraction Lost
    Fans;                     !- EndUse Subcategory

ELECTRICEQUIPMENT,
    1F_Gym_Equip,             !- Name
    1F_Gym,                   !- Zone or ZoneList or Space or SpaceList Name
    SCH_Equip,                !- Schedule Name
    Watts/Area,               !- Design Level Calculation Method
    ,                         !- Design Level
    2.90625,                  !- Watts per Floor Area
    ,                         !- Watts per Person
    0,                        !- Fraction Latent
    0.3,                      !- Fraction Radiant
    0,                        !- Fraction Lost
    General;                  !- EndUse Subcategory

ELECTRICEQUIPMENT,
    1F_Gym_FanProxy,          !- Name
    1F_Gym,                   !- Zone or ZoneList or Space or SpaceList Name
    SCH_HVAC,                 !- Schedule Name
    Watts/Area,               !- Design Level Calculation Method
    ,                         !- Design Level
    1.08000,                      !- Watts per Floor Area
    ,                         !- Watts per Person
    0,                        !- Fraction Latent
    0,                        !- Fraction Radiant
    0,                        !- Fraction Lost
    Fans;                     !- EndUse Subcategory

ELECTRICEQUIPMENT,
    1F_Area_A_Equip,          !- Name
    1F_Area_A,                !- Zone or ZoneList or Space or SpaceList Name
    SCH_Equip,                !- Schedule Name
    Watts/Area,               !- Design Level Calculation Method
    ,                         !- Design Level
    5.81251,                  !- Watts per Floor Area
    ,                         !- Watts per Person
    0,                        !- Fraction Latent
    0.3,                      !- Fraction Radiant
    0,                        !- Fraction Lost
    General;                  !- EndUse Subcategory

ELECTRICEQUIPMENT,
    1F_Area_A_FanProxy,       !- Name
    1F_Area_A,                !- Zone or ZoneList or Space or SpaceList Name
    SCH_HVAC,                 !- Schedule Name
    Watts/Area,               !- Design Level Calculation Method
    ,                         !- Design Level
    2.40469,                 !- Watts per Floor Area
    ,                         !- Watts per Person
    0,                        !- Fraction Latent
    0,                        !- Fraction Radiant
    0,                        !- Fraction Lost
    Fans;                     !- EndUse Subcategory

ELECTRICEQUIPMENT,
    1F_Area_B_Equip,          !- Name
    1F_Area_B,                !- Zone or ZoneList or Space or SpaceList Name
    SCH_Equip,                !- Schedule Name
    Watts/Area,               !- Design Level Calculation Method
    ,                         !- Design Level
    5.81251,                  !- Watts per Floor Area
    ,                         !- Watts per Person
    0,                        !- Fraction Latent
    0.3,                      !- Fraction Radiant
    0,                        !- Fraction Lost
    General;                  !- EndUse Subcategory

ELECTRICEQUIPMENT,
    1F_Area_B_FanProxy,       !- Name
    1F_Area_B,                !- Zone or ZoneList or Space or SpaceList Name
    SCH_HVAC,                 !- Schedule Name
    Watts/Area,               !- Design Level Calculation Method
    ,                         !- Design Level
    1.25753,                  !- Watts per Floor Area
    ,                         !- Watts per Person
    0,                        !- Fraction Latent
    0,                        !- Fraction Radiant
    0,                        !- Fraction Lost
    Fans;                     !- EndUse Subcategory

ELECTRICEQUIPMENT,
    1F_Area_C_Equip,          !- Name
    1F_Area_C,                !- Zone or ZoneList or Space or SpaceList Name
    SCH_Equip,                !- Schedule Name
    Watts/Area,               !- Design Level Calculation Method
    ,                         !- Design Level
    5.81251,                  !- Watts per Floor Area
    ,                         !- Watts per Person
    0,                        !- Fraction Latent
    0.3,                      !- Fraction Radiant
    0,                        !- Fraction Lost
    General;                  !- EndUse Subcategory

ELECTRICEQUIPMENT,
    1F_Area_C_FanProxy,       !- Name
    1F_Area_C,                !- Zone or ZoneList or Space or SpaceList Name
    SCH_HVAC,                 !- Schedule Name
    Watts/Area,               !- Design Level Calculation Method
    ,                         !- Design Level
    0.63956,                 !- Watts per Floor Area
    ,                         !- Watts per Person
    0,                        !- Fraction Latent
    0,                        !- Fraction Radiant
    0,                        !- Fraction Lost
    Fans;                     !- EndUse Subcategory

ELECTRICEQUIPMENT,
    1F_Area_D_Equip,          !- Name
    1F_Area_D,                !- Zone or ZoneList or Space or SpaceList Name
    SCH_Equip,                !- Schedule Name
    Watts/Area,               !- Design Level Calculation Method
    ,                         !- Design Level
    5.81251,                  !- Watts per Floor Area
    ,                         !- Watts per Person
    0,                        !- Fraction Latent
    0.3,                      !- Fraction Radiant
    0,                        !- Fraction Lost
    General;                  !- EndUse Subcategory

ELECTRICEQUIPMENT,
    1F_Area_D_FanProxy,       !- Name
    1F_Area_D,                !- Zone or ZoneList or Space or SpaceList Name
    SCH_HVAC,                 !- Schedule Name
    Watts/Area,               !- Design Level Calculation Method
    ,                         !- Design Level
    1.08529,                 !- Watts per Floor Area
    ,                         !- Watts per Person
    0,                        !- Fraction Latent
    0,                        !- Fraction Radiant
    0,                        !- Fraction Lost
    Fans;                     !- EndUse Subcategory

ELECTRICEQUIPMENT,
    2F_Area_A_Equip,          !- Name
    2F_Area_A,                !- Zone or ZoneList or Space or SpaceList Name
    SCH_Equip,                !- Schedule Name
    Watts/Area,               !- Design Level Calculation Method
    ,                         !- Design Level
    5.81251,                  !- Watts per Floor Area
    ,                         !- Watts per Person
    0,                        !- Fraction Latent
    0.3,                      !- Fraction Radiant
    0,                        !- Fraction Lost
    General;                  !- EndUse Subcategory

ELECTRICEQUIPMENT,
    2F_Area_A_FanProxy,       !- Name
    2F_Area_A,                !- Zone or ZoneList or Space or SpaceList Name
    SCH_HVAC,                 !- Schedule Name
    Watts/Area,               !- Design Level Calculation Method
    ,                         !- Design Level
    1.84736,                 !- Watts per Floor Area
    ,                         !- Watts per Person
    0,                        !- Fraction Latent
    0,                        !- Fraction Radiant
    0,                        !- Fraction Lost
    Fans;                     !- EndUse Subcategory

ELECTRICEQUIPMENT,
    2F_Area_B_Equip,          !- Name
    2F_Area_B,                !- Zone or ZoneList or Space or SpaceList Name
    SCH_Equip,                !- Schedule Name
    Watts/Area,               !- Design Level Calculation Method
    ,                         !- Design Level
    5.81251,                  !- Watts per Floor Area
    ,                         !- Watts per Person
    0,                        !- Fraction Latent
    0.3,                      !- Fraction Radiant
    0,                        !- Fraction Lost
    General;                  !- EndUse Subcategory

ELECTRICEQUIPMENT,
    2F_Area_B_FanProxy,       !- Name
    2F_Area_B,                !- Zone or ZoneList or Space or SpaceList Name
    SCH_HVAC,                 !- Schedule Name
    Watts/Area,               !- Design Level Calculation Method
    ,                         !- Design Level
    2.23898,                  !- Watts per Floor Area
    ,                         !- Watts per Person
    0,                        !- Fraction Latent
    0,                        !- Fraction Radiant
    0,                        !- Fraction Lost
    Fans;                     !- EndUse Subcategory

ZONEINFILTRATION:DESIGNFLOWRATE,
    1F_Library_IMC_Infil,     !- Name
    1F_Library_IMC,           !- Zone or ZoneList or Space or SpaceList Name
    SCH_Infil,                !- Schedule Name
    Flow/ExteriorArea,        !- Design Flow Rate Calculation Method
    ,                         !- Design Flow Rate
    ,                         !- Flow Rate per Floor Area
    0.00073,                  !- Flow Rate per Exterior Surface Area
    ,                         !- Air Changes per Hour
    1,                        !- Constant Term Coefficient
    0,                        !- Temperature Term Coefficient
    0,                        !- Velocity Term Coefficient
    0,                        !- Velocity Squared Term Coefficient
    Outdoor;                  !- Density Basis

ZONEINFILTRATION:DESIGNFLOWRATE,
    1F_Cafe_Kitchen_Infil,    !- Name
    1F_Cafe_Kitchen,          !- Zone or ZoneList or Space or SpaceList Name
    SCH_Infil,                !- Schedule Name
    Flow/ExteriorArea,        !- Design Flow Rate Calculation Method
    ,                         !- Design Flow Rate
    ,                         !- Flow Rate per Floor Area
    0.00073,                  !- Flow Rate per Exterior Surface Area
    ,                         !- Air Changes per Hour
    1,                        !- Constant Term Coefficient
    0,                        !- Temperature Term Coefficient
    0,                        !- Velocity Term Coefficient
    0,                        !- Velocity Squared Term Coefficient
    Outdoor;                  !- Density Basis

ZONEINFILTRATION:DESIGNFLOWRATE,
    1F_Gym_Infil,             !- Name
    1F_Gym,                   !- Zone or ZoneList or Space or SpaceList Name
    SCH_Infil,                !- Schedule Name
    Flow/ExteriorArea,        !- Design Flow Rate Calculation Method
    ,                         !- Design Flow Rate
    ,                         !- Flow Rate per Floor Area
    0.00073,                  !- Flow Rate per Exterior Surface Area
    ,                         !- Air Changes per Hour
    1,                        !- Constant Term Coefficient
    0,                        !- Temperature Term Coefficient
    0,                        !- Velocity Term Coefficient
    0,                        !- Velocity Squared Term Coefficient
    Outdoor;                  !- Density Basis

ZONEINFILTRATION:DESIGNFLOWRATE,
    1F_Area_A_Infil,          !- Name
    1F_Area_A,                !- Zone or ZoneList or Space or SpaceList Name
    SCH_Infil,                !- Schedule Name
    Flow/ExteriorArea,        !- Design Flow Rate Calculation Method
    ,                         !- Design Flow Rate
    ,                         !- Flow Rate per Floor Area
    0.00073,                  !- Flow Rate per Exterior Surface Area
    ,                         !- Air Changes per Hour
    1,                        !- Constant Term Coefficient
    0,                        !- Temperature Term Coefficient
    0,                        !- Velocity Term Coefficient
    0,                        !- Velocity Squared Term Coefficient
    Outdoor;                  !- Density Basis

ZONEINFILTRATION:DESIGNFLOWRATE,
    1F_Area_B_Infil,          !- Name
    1F_Area_B,                !- Zone or ZoneList or Space or SpaceList Name
    SCH_Infil,                !- Schedule Name
    Flow/ExteriorArea,        !- Design Flow Rate Calculation Method
    ,                         !- Design Flow Rate
    ,                         !- Flow Rate per Floor Area
    0.00073,                  !- Flow Rate per Exterior Surface Area
    ,                         !- Air Changes per Hour
    1,                        !- Constant Term Coefficient
    0,                        !- Temperature Term Coefficient
    0,                        !- Velocity Term Coefficient
    0,                        !- Velocity Squared Term Coefficient
    Outdoor;                  !- Density Basis

ZONEINFILTRATION:DESIGNFLOWRATE,
    1F_Area_C_Infil,          !- Name
    1F_Area_C,                !- Zone or ZoneList or Space or SpaceList Name
    SCH_Infil,                !- Schedule Name
    Flow/ExteriorArea,        !- Design Flow Rate Calculation Method
    ,                         !- Design Flow Rate
    ,                         !- Flow Rate per Floor Area
    0.00073,                  !- Flow Rate per Exterior Surface Area
    ,                         !- Air Changes per Hour
    1,                        !- Constant Term Coefficient
    0,                        !- Temperature Term Coefficient
    0,                        !- Velocity Term Coefficient
    0,                        !- Velocity Squared Term Coefficient
    Outdoor;                  !- Density Basis

ZONEINFILTRATION:DESIGNFLOWRATE,
    1F_Area_D_Infil,          !- Name
    1F_Area_D,                !- Zone or ZoneList or Space or SpaceList Name
    SCH_Infil,                !- Schedule Name
    Flow/ExteriorArea,        !- Design Flow Rate Calculation Method
    ,                         !- Design Flow Rate
    ,                         !- Flow Rate per Floor Area
    0.00073,                  !- Flow Rate per Exterior Surface Area
    ,                         !- Air Changes per Hour
    1,                        !- Constant Term Coefficient
    0,                        !- Temperature Term Coefficient
    0,                        !- Velocity Term Coefficient
    0,                        !- Velocity Squared Term Coefficient
    Outdoor;                  !- Density Basis

ZONEINFILTRATION:DESIGNFLOWRATE,
    2F_Area_A_Infil,          !- Name
    2F_Area_A,                !- Zone or ZoneList or Space or SpaceList Name
    SCH_Infil,                !- Schedule Name
    Flow/ExteriorArea,        !- Design Flow Rate Calculation Method
    ,                         !- Design Flow Rate
    ,                         !- Flow Rate per Floor Area
    0.00073,                  !- Flow Rate per Exterior Surface Area
    ,                         !- Air Changes per Hour
    1,                        !- Constant Term Coefficient
    0,                        !- Temperature Term Coefficient
    0,                        !- Velocity Term Coefficient
    0,                        !- Velocity Squared Term Coefficient
    Outdoor;                  !- Density Basis

ZONEINFILTRATION:DESIGNFLOWRATE,
    2F_Area_B_Infil,          !- Name
    2F_Area_B,                !- Zone or ZoneList or Space or SpaceList Name
    SCH_Infil,                !- Schedule Name
    Flow/ExteriorArea,        !- Design Flow Rate Calculation Method
    ,                         !- Design Flow Rate
    ,                         !- Flow Rate per Floor Area
    0.00073,                  !- Flow Rate per Exterior Surface Area
    ,                         !- Air Changes per Hour
    1,                        !- Constant Term Coefficient
    0,                        !- Temperature Term Coefficient
    0,                        !- Velocity Term Coefficient
    0,                        !- Velocity Squared Term Coefficient
    Outdoor;                  !- Density Basis

DESIGNSPECIFICATION:OUTDOORAIR,
    1F_Library_IMC_OA,        !- Name
    Sum,                      !- Outdoor Air Method
    0.002359735,              !- Outdoor Air Flow per Person
    6.095997e-04,             !- Outdoor Air Flow per Zone Floor Area
    0,                        !- Outdoor Air Flow per Zone
    0;                        !- Outdoor Air Flow Air Changes per Hour

DESIGNSPECIFICATION:OUTDOORAIR,
    1F_Cafe_Kitchen_OA,       !- Name
    Sum,                      !- Outdoor Air Method
    0.0035396025,             !- Outdoor Air Flow per Person
    9.143995e-04,             !- Outdoor Air Flow per Zone Floor Area
    0,                        !- Outdoor Air Flow per Zone
    0;                        !- Outdoor Air Flow Air Changes per Hour

DESIGNSPECIFICATION:OUTDOORAIR,
    1F_Gym_OA,                !- Name
    Sum,                      !- Outdoor Air Method
    0.00943894,               !- Outdoor Air Flow per Person
    9.143995e-04,             !- Outdoor Air Flow per Zone Floor Area
    0,                        !- Outdoor Air Flow per Zone
    0;                        !- Outdoor Air Flow Air Changes per Hour

DESIGNSPECIFICATION:OUTDOORAIR,
    1F_Area_A_OA,             !- Name
    Sum,                      !- Outdoor Air Method
    0.00471947,               !- Outdoor Air Flow per Person
    6.095997e-04,             !- Outdoor Air Flow per Zone Floor Area
    0,                        !- Outdoor Air Flow per Zone
    0;                        !- Outdoor Air Flow Air Changes per Hour

DESIGNSPECIFICATION:OUTDOORAIR,
    1F_Area_B_OA,             !- Name
    Sum,                      !- Outdoor Air Method
    0.00471947,               !- Outdoor Air Flow per Person
    6.095997e-04,             !- Outdoor Air Flow per Zone Floor Area
    0,                        !- Outdoor Air Flow per Zone
    0;                        !- Outdoor Air Flow Air Changes per Hour

DESIGNSPECIFICATION:OUTDOORAIR,
    1F_Area_C_OA,             !- Name
    Sum,                      !- Outdoor Air Method
    0.00471947,               !- Outdoor Air Flow per Person
    6.095997e-04,             !- Outdoor Air Flow per Zone Floor Area
    0,                        !- Outdoor Air Flow per Zone
    0;                        !- Outdoor Air Flow Air Changes per Hour

DESIGNSPECIFICATION:OUTDOORAIR,
    1F_Area_D_OA,             !- Name
    Sum,                      !- Outdoor Air Method
    0.00471947,               !- Outdoor Air Flow per Person
    6.095997e-04,             !- Outdoor Air Flow per Zone Floor Area
    0,                        !- Outdoor Air Flow per Zone
    0;                        !- Outdoor Air Flow Air Changes per Hour

DESIGNSPECIFICATION:OUTDOORAIR,
    2F_Area_A_OA,             !- Name
    Sum,                      !- Outdoor Air Method
    0.00471947,               !- Outdoor Air Flow per Person
    6.095997e-04,             !- Outdoor Air Flow per Zone Floor Area
    0,                        !- Outdoor Air Flow per Zone
    0;                        !- Outdoor Air Flow Air Changes per Hour

DESIGNSPECIFICATION:OUTDOORAIR,
    2F_Area_B_OA,             !- Name
    Sum,                      !- Outdoor Air Method
    0.00471947,               !- Outdoor Air Flow per Person
    6.095997e-04,             !- Outdoor Air Flow per Zone Floor Area
    0,                        !- Outdoor Air Flow per Zone
    0;                        !- Outdoor Air Flow Air Changes per Hour

SIZING:ZONE,
    1F_Library_IMC,           !- Zone or ZoneList Name
    SupplyAirTemperature,     !- Zone Cooling Design Supply Air Temperature Input Method
    12,                       !- Zone Cooling Design Supply Air Temperature
    ,                         !- Zone Cooling Design Supply Air Temperature Difference
    SupplyAirTemperature,     !- Zone Heating Design Supply Air Temperature Input Method
    50,                       !- Zone Heating Design Supply Air Temperature
    ,                         !- Zone Heating Design Supply Air Temperature Difference
    0.0085,                   !- Zone Cooling Design Supply Air Humidity Ratio
    0.008,                    !- Zone Heating Design Supply Air Humidity Ratio
    ,                         !- Design Specification Outdoor Air Object Name
    ,                         !- Zone Heating Sizing Factor
    ,                         !- Zone Cooling Sizing Factor
    DesignDay,                !- Cooling Design Air Flow Method
    0,                        !- Cooling Design Air Flow Rate
    0.000762,                 !- Cooling Minimum Air Flow per Zone Floor Area
    0,                        !- Cooling Minimum Air Flow
    0.2,                      !- Cooling Minimum Air Flow Fraction
    DesignDay,                !- Heating Design Air Flow Method
    0,                        !- Heating Design Air Flow Rate
    0.002032,                 !- Heating Maximum Air Flow per Zone Floor Area
    0.1415762,                !- Heating Maximum Air Flow
    0.3,                      !- Heating Maximum Air Flow Fraction
    ,                         !- Design Specification Zone Air Distribution Object Name
    No,                       !- Account for Dedicated Outdoor Air System
    NeutralSupplyAir,         !- Dedicated Outdoor Air System Control Strategy
    autosize,                 !- Dedicated Outdoor Air Low Setpoint Temperature for Design
    autosize,                 !- Dedicated Outdoor Air High Setpoint Temperature for Design
    Sensible Load Only No Latent Load,    !- Zone Load Sizing Method
    HumidityRatioDifference,    !- Zone Latent Cooling Design Supply Air Humidity Ratio Input Method
    ,                         !- Zone Dehumidification Design Supply Air Humidity Ratio
    0.005,                    !- Zone Cooling Design Supply Air Humidity Ratio Difference
    HumidityRatioDifference,    !- Zone Latent Heating Design Supply Air Humidity Ratio Input Method
    ,                         !- Zone Humidification Design Supply Air Humidity Ratio
    0.005,                    !- Zone Humidification Design Supply Air Humidity Ratio Difference
    ,                         !- Zone Humidistat Dehumidification Set Point Schedule Name
    ,                         !- Zone Humidistat Humidification Set Point Schedule Name
    Coincident,               !- Type of Space Sum to Use
    None,                     !- Heating Coil Sizing Method
    1;                        !- Maximum Heating Capacity To Cooling Load Sizing Ratio

SIZING:ZONE,
    1F_Cafe_Kitchen,          !- Zone or ZoneList Name
    SupplyAirTemperature,     !- Zone Cooling Design Supply Air Temperature Input Method
    12,                       !- Zone Cooling Design Supply Air Temperature
    ,                         !- Zone Cooling Design Supply Air Temperature Difference
    SupplyAirTemperature,     !- Zone Heating Design Supply Air Temperature Input Method
    50,                       !- Zone Heating Design Supply Air Temperature
    ,                         !- Zone Heating Design Supply Air Temperature Difference
    0.0085,                   !- Zone Cooling Design Supply Air Humidity Ratio
    0.008,                    !- Zone Heating Design Supply Air Humidity Ratio
    ,                         !- Design Specification Outdoor Air Object Name
    ,                         !- Zone Heating Sizing Factor
    ,                         !- Zone Cooling Sizing Factor
    DesignDay,                !- Cooling Design Air Flow Method
    0,                        !- Cooling Design Air Flow Rate
    0.000762,                 !- Cooling Minimum Air Flow per Zone Floor Area
    0,                        !- Cooling Minimum Air Flow
    0.2,                      !- Cooling Minimum Air Flow Fraction
    DesignDay,                !- Heating Design Air Flow Method
    0,                        !- Heating Design Air Flow Rate
    0.002032,                 !- Heating Maximum Air Flow per Zone Floor Area
    0.1415762,                !- Heating Maximum Air Flow
    0.3,                      !- Heating Maximum Air Flow Fraction
    ,                         !- Design Specification Zone Air Distribution Object Name
    No,                       !- Account for Dedicated Outdoor Air System
    NeutralSupplyAir,         !- Dedicated Outdoor Air System Control Strategy
    autosize,                 !- Dedicated Outdoor Air Low Setpoint Temperature for Design
    autosize,                 !- Dedicated Outdoor Air High Setpoint Temperature for Design
    Sensible Load Only No Latent Load,    !- Zone Load Sizing Method
    HumidityRatioDifference,    !- Zone Latent Cooling Design Supply Air Humidity Ratio Input Method
    ,                         !- Zone Dehumidification Design Supply Air Humidity Ratio
    0.005,                    !- Zone Cooling Design Supply Air Humidity Ratio Difference
    HumidityRatioDifference,    !- Zone Latent Heating Design Supply Air Humidity Ratio Input Method
    ,                         !- Zone Humidification Design Supply Air Humidity Ratio
    0.005,                    !- Zone Humidification Design Supply Air Humidity Ratio Difference
    ,                         !- Zone Humidistat Dehumidification Set Point Schedule Name
    ,                         !- Zone Humidistat Humidification Set Point Schedule Name
    Coincident,               !- Type of Space Sum to Use
    None,                     !- Heating Coil Sizing Method
    1;                        !- Maximum Heating Capacity To Cooling Load Sizing Ratio

SIZING:ZONE,
    1F_Gym,                   !- Zone or ZoneList Name
    SupplyAirTemperature,     !- Zone Cooling Design Supply Air Temperature Input Method
    12,                       !- Zone Cooling Design Supply Air Temperature
    ,                         !- Zone Cooling Design Supply Air Temperature Difference
    SupplyAirTemperature,     !- Zone Heating Design Supply Air Temperature Input Method
    50,                       !- Zone Heating Design Supply Air Temperature
    ,                         !- Zone Heating Design Supply Air Temperature Difference
    0.0085,                   !- Zone Cooling Design Supply Air Humidity Ratio
    0.008,                    !- Zone Heating Design Supply Air Humidity Ratio
    ,                         !- Design Specification Outdoor Air Object Name
    ,                         !- Zone Heating Sizing Factor
    ,                         !- Zone Cooling Sizing Factor
    DesignDay,                !- Cooling Design Air Flow Method
    0,                        !- Cooling Design Air Flow Rate
    0.000762,                 !- Cooling Minimum Air Flow per Zone Floor Area
    0,                        !- Cooling Minimum Air Flow
    0.2,                      !- Cooling Minimum Air Flow Fraction
    DesignDay,                !- Heating Design Air Flow Method
    0,                        !- Heating Design Air Flow Rate
    0.002032,                 !- Heating Maximum Air Flow per Zone Floor Area
    0.1415762,                !- Heating Maximum Air Flow
    0.3,                      !- Heating Maximum Air Flow Fraction
    ,                         !- Design Specification Zone Air Distribution Object Name
    No,                       !- Account for Dedicated Outdoor Air System
    NeutralSupplyAir,         !- Dedicated Outdoor Air System Control Strategy
    autosize,                 !- Dedicated Outdoor Air Low Setpoint Temperature for Design
    autosize,                 !- Dedicated Outdoor Air High Setpoint Temperature for Design
    Sensible Load Only No Latent Load,    !- Zone Load Sizing Method
    HumidityRatioDifference,    !- Zone Latent Cooling Design Supply Air Humidity Ratio Input Method
    ,                         !- Zone Dehumidification Design Supply Air Humidity Ratio
    0.005,                    !- Zone Cooling Design Supply Air Humidity Ratio Difference
    HumidityRatioDifference,    !- Zone Latent Heating Design Supply Air Humidity Ratio Input Method
    ,                         !- Zone Humidification Design Supply Air Humidity Ratio
    0.005,                    !- Zone Humidification Design Supply Air Humidity Ratio Difference
    ,                         !- Zone Humidistat Dehumidification Set Point Schedule Name
    ,                         !- Zone Humidistat Humidification Set Point Schedule Name
    Coincident,               !- Type of Space Sum to Use
    None,                     !- Heating Coil Sizing Method
    1;                        !- Maximum Heating Capacity To Cooling Load Sizing Ratio

SIZING:ZONE,
    1F_Area_A,                !- Zone or ZoneList Name
    SupplyAirTemperature,     !- Zone Cooling Design Supply Air Temperature Input Method
    12,                       !- Zone Cooling Design Supply Air Temperature
    ,                         !- Zone Cooling Design Supply Air Temperature Difference
    SupplyAirTemperature,     !- Zone Heating Design Supply Air Temperature Input Method
    50,                       !- Zone Heating Design Supply Air Temperature
    ,                         !- Zone Heating Design Supply Air Temperature Difference
    0.0085,                   !- Zone Cooling Design Supply Air Humidity Ratio
    0.008,                    !- Zone Heating Design Supply Air Humidity Ratio
    ,                         !- Design Specification Outdoor Air Object Name
    ,                         !- Zone Heating Sizing Factor
    ,                         !- Zone Cooling Sizing Factor
    DesignDay,                !- Cooling Design Air Flow Method
    0,                        !- Cooling Design Air Flow Rate
    0.000762,                 !- Cooling Minimum Air Flow per Zone Floor Area
    0,                        !- Cooling Minimum Air Flow
    0.2,                      !- Cooling Minimum Air Flow Fraction
    DesignDay,                !- Heating Design Air Flow Method
    0,                        !- Heating Design Air Flow Rate
    0.002032,                 !- Heating Maximum Air Flow per Zone Floor Area
    0.1415762,                !- Heating Maximum Air Flow
    0.3,                      !- Heating Maximum Air Flow Fraction
    ,                         !- Design Specification Zone Air Distribution Object Name
    No,                       !- Account for Dedicated Outdoor Air System
    NeutralSupplyAir,         !- Dedicated Outdoor Air System Control Strategy
    autosize,                 !- Dedicated Outdoor Air Low Setpoint Temperature for Design
    autosize,                 !- Dedicated Outdoor Air High Setpoint Temperature for Design
    Sensible Load Only No Latent Load,    !- Zone Load Sizing Method
    HumidityRatioDifference,    !- Zone Latent Cooling Design Supply Air Humidity Ratio Input Method
    ,                         !- Zone Dehumidification Design Supply Air Humidity Ratio
    0.005,                    !- Zone Cooling Design Supply Air Humidity Ratio Difference
    HumidityRatioDifference,    !- Zone Latent Heating Design Supply Air Humidity Ratio Input Method
    ,                         !- Zone Humidification Design Supply Air Humidity Ratio
    0.005,                    !- Zone Humidification Design Supply Air Humidity Ratio Difference
    ,                         !- Zone Humidistat Dehumidification Set Point Schedule Name
    ,                         !- Zone Humidistat Humidification Set Point Schedule Name
    Coincident,               !- Type of Space Sum to Use
    None,                     !- Heating Coil Sizing Method
    1;                        !- Maximum Heating Capacity To Cooling Load Sizing Ratio

SIZING:ZONE,
    1F_Area_B,                !- Zone or ZoneList Name
    SupplyAirTemperature,     !- Zone Cooling Design Supply Air Temperature Input Method
    12,                       !- Zone Cooling Design Supply Air Temperature
    ,                         !- Zone Cooling Design Supply Air Temperature Difference
    SupplyAirTemperature,     !- Zone Heating Design Supply Air Temperature Input Method
    50,                       !- Zone Heating Design Supply Air Temperature
    ,                         !- Zone Heating Design Supply Air Temperature Difference
    0.0085,                   !- Zone Cooling Design Supply Air Humidity Ratio
    0.008,                    !- Zone Heating Design Supply Air Humidity Ratio
    ,                         !- Design Specification Outdoor Air Object Name
    ,                         !- Zone Heating Sizing Factor
    ,                         !- Zone Cooling Sizing Factor
    DesignDay,                !- Cooling Design Air Flow Method
    0,                        !- Cooling Design Air Flow Rate
    0.000762,                 !- Cooling Minimum Air Flow per Zone Floor Area
    0,                        !- Cooling Minimum Air Flow
    0.2,                      !- Cooling Minimum Air Flow Fraction
    DesignDay,                !- Heating Design Air Flow Method
    0,                        !- Heating Design Air Flow Rate
    0.002032,                 !- Heating Maximum Air Flow per Zone Floor Area
    0.1415762,                !- Heating Maximum Air Flow
    0.3,                      !- Heating Maximum Air Flow Fraction
    ,                         !- Design Specification Zone Air Distribution Object Name
    No,                       !- Account for Dedicated Outdoor Air System
    NeutralSupplyAir,         !- Dedicated Outdoor Air System Control Strategy
    autosize,                 !- Dedicated Outdoor Air Low Setpoint Temperature for Design
    autosize,                 !- Dedicated Outdoor Air High Setpoint Temperature for Design
    Sensible Load Only No Latent Load,    !- Zone Load Sizing Method
    HumidityRatioDifference,    !- Zone Latent Cooling Design Supply Air Humidity Ratio Input Method
    ,                         !- Zone Dehumidification Design Supply Air Humidity Ratio
    0.005,                    !- Zone Cooling Design Supply Air Humidity Ratio Difference
    HumidityRatioDifference,    !- Zone Latent Heating Design Supply Air Humidity Ratio Input Method
    ,                         !- Zone Humidification Design Supply Air Humidity Ratio
    0.005,                    !- Zone Humidification Design Supply Air Humidity Ratio Difference
    ,                         !- Zone Humidistat Dehumidification Set Point Schedule Name
    ,                         !- Zone Humidistat Humidification Set Point Schedule Name
    Coincident,               !- Type of Space Sum to Use
    None,                     !- Heating Coil Sizing Method
    1;                        !- Maximum Heating Capacity To Cooling Load Sizing Ratio

SIZING:ZONE,
    1F_Area_C,                !- Zone or ZoneList Name
    SupplyAirTemperature,     !- Zone Cooling Design Supply Air Temperature Input Method
    12,                       !- Zone Cooling Design Supply Air Temperature
    ,                         !- Zone Cooling Design Supply Air Temperature Difference
    SupplyAirTemperature,     !- Zone Heating Design Supply Air Temperature Input Method
    50,                       !- Zone Heating Design Supply Air Temperature
    ,                         !- Zone Heating Design Supply Air Temperature Difference
    0.0085,                   !- Zone Cooling Design Supply Air Humidity Ratio
    0.008,                    !- Zone Heating Design Supply Air Humidity Ratio
    ,                         !- Design Specification Outdoor Air Object Name
    ,                         !- Zone Heating Sizing Factor
    ,                         !- Zone Cooling Sizing Factor
    DesignDay,                !- Cooling Design Air Flow Method
    0,                        !- Cooling Design Air Flow Rate
    0.000762,                 !- Cooling Minimum Air Flow per Zone Floor Area
    0,                        !- Cooling Minimum Air Flow
    0.2,                      !- Cooling Minimum Air Flow Fraction
    DesignDay,                !- Heating Design Air Flow Method
    0,                        !- Heating Design Air Flow Rate
    0.002032,                 !- Heating Maximum Air Flow per Zone Floor Area
    0.1415762,                !- Heating Maximum Air Flow
    0.3,                      !- Heating Maximum Air Flow Fraction
    ,                         !- Design Specification Zone Air Distribution Object Name
    No,                       !- Account for Dedicated Outdoor Air System
    NeutralSupplyAir,         !- Dedicated Outdoor Air System Control Strategy
    autosize,                 !- Dedicated Outdoor Air Low Setpoint Temperature for Design
    autosize,                 !- Dedicated Outdoor Air High Setpoint Temperature for Design
    Sensible Load Only No Latent Load,    !- Zone Load Sizing Method
    HumidityRatioDifference,    !- Zone Latent Cooling Design Supply Air Humidity Ratio Input Method
    ,                         !- Zone Dehumidification Design Supply Air Humidity Ratio
    0.005,                    !- Zone Cooling Design Supply Air Humidity Ratio Difference
    HumidityRatioDifference,    !- Zone Latent Heating Design Supply Air Humidity Ratio Input Method
    ,                         !- Zone Humidification Design Supply Air Humidity Ratio
    0.005,                    !- Zone Humidification Design Supply Air Humidity Ratio Difference
    ,                         !- Zone Humidistat Dehumidification Set Point Schedule Name
    ,                         !- Zone Humidistat Humidification Set Point Schedule Name
    Coincident,               !- Type of Space Sum to Use
    None,                     !- Heating Coil Sizing Method
    1;                        !- Maximum Heating Capacity To Cooling Load Sizing Ratio

SIZING:ZONE,
    1F_Area_D,                !- Zone or ZoneList Name
    SupplyAirTemperature,     !- Zone Cooling Design Supply Air Temperature Input Method
    12,                       !- Zone Cooling Design Supply Air Temperature
    ,                         !- Zone Cooling Design Supply Air Temperature Difference
    SupplyAirTemperature,     !- Zone Heating Design Supply Air Temperature Input Method
    50,                       !- Zone Heating Design Supply Air Temperature
    ,                         !- Zone Heating Design Supply Air Temperature Difference
    0.0085,                   !- Zone Cooling Design Supply Air Humidity Ratio
    0.008,                    !- Zone Heating Design Supply Air Humidity Ratio
    ,                         !- Design Specification Outdoor Air Object Name
    ,                         !- Zone Heating Sizing Factor
    ,                         !- Zone Cooling Sizing Factor
    DesignDay,                !- Cooling Design Air Flow Method
    0,                        !- Cooling Design Air Flow Rate
    0.000762,                 !- Cooling Minimum Air Flow per Zone Floor Area
    0,                        !- Cooling Minimum Air Flow
    0.2,                      !- Cooling Minimum Air Flow Fraction
    DesignDay,                !- Heating Design Air Flow Method
    0,                        !- Heating Design Air Flow Rate
    0.002032,                 !- Heating Maximum Air Flow per Zone Floor Area
    0.1415762,                !- Heating Maximum Air Flow
    0.3,                      !- Heating Maximum Air Flow Fraction
    ,                         !- Design Specification Zone Air Distribution Object Name
    No,                       !- Account for Dedicated Outdoor Air System
    NeutralSupplyAir,         !- Dedicated Outdoor Air System Control Strategy
    autosize,                 !- Dedicated Outdoor Air Low Setpoint Temperature for Design
    autosize,                 !- Dedicated Outdoor Air High Setpoint Temperature for Design
    Sensible Load Only No Latent Load,    !- Zone Load Sizing Method
    HumidityRatioDifference,    !- Zone Latent Cooling Design Supply Air Humidity Ratio Input Method
    ,                         !- Zone Dehumidification Design Supply Air Humidity Ratio
    0.005,                    !- Zone Cooling Design Supply Air Humidity Ratio Difference
    HumidityRatioDifference,    !- Zone Latent Heating Design Supply Air Humidity Ratio Input Method
    ,                         !- Zone Humidification Design Supply Air Humidity Ratio
    0.005,                    !- Zone Humidification Design Supply Air Humidity Ratio Difference
    ,                         !- Zone Humidistat Dehumidification Set Point Schedule Name
    ,                         !- Zone Humidistat Humidification Set Point Schedule Name
    Coincident,               !- Type of Space Sum to Use
    None,                     !- Heating Coil Sizing Method
    1;                        !- Maximum Heating Capacity To Cooling Load Sizing Ratio

SIZING:ZONE,
    2F_Area_A,                !- Zone or ZoneList Name
    SupplyAirTemperature,     !- Zone Cooling Design Supply Air Temperature Input Method
    12,                       !- Zone Cooling Design Supply Air Temperature
    ,                         !- Zone Cooling Design Supply Air Temperature Difference
    SupplyAirTemperature,     !- Zone Heating Design Supply Air Temperature Input Method
    50,                       !- Zone Heating Design Supply Air Temperature
    ,                         !- Zone Heating Design Supply Air Temperature Difference
    0.0085,                   !- Zone Cooling Design Supply Air Humidity Ratio
    0.008,                    !- Zone Heating Design Supply Air Humidity Ratio
    ,                         !- Design Specification Outdoor Air Object Name
    ,                         !- Zone Heating Sizing Factor
    ,                         !- Zone Cooling Sizing Factor
    DesignDay,                !- Cooling Design Air Flow Method
    0,                        !- Cooling Design Air Flow Rate
    0.000762,                 !- Cooling Minimum Air Flow per Zone Floor Area
    0,                        !- Cooling Minimum Air Flow
    0.2,                      !- Cooling Minimum Air Flow Fraction
    DesignDay,                !- Heating Design Air Flow Method
    0,                        !- Heating Design Air Flow Rate
    0.002032,                 !- Heating Maximum Air Flow per Zone Floor Area
    0.1415762,                !- Heating Maximum Air Flow
    0.3,                      !- Heating Maximum Air Flow Fraction
    ,                         !- Design Specification Zone Air Distribution Object Name
    No,                       !- Account for Dedicated Outdoor Air System
    NeutralSupplyAir,         !- Dedicated Outdoor Air System Control Strategy
    autosize,                 !- Dedicated Outdoor Air Low Setpoint Temperature for Design
    autosize,                 !- Dedicated Outdoor Air High Setpoint Temperature for Design
    Sensible Load Only No Latent Load,    !- Zone Load Sizing Method
    HumidityRatioDifference,    !- Zone Latent Cooling Design Supply Air Humidity Ratio Input Method
    ,                         !- Zone Dehumidification Design Supply Air Humidity Ratio
    0.005,                    !- Zone Cooling Design Supply Air Humidity Ratio Difference
    HumidityRatioDifference,    !- Zone Latent Heating Design Supply Air Humidity Ratio Input Method
    ,                         !- Zone Humidification Design Supply Air Humidity Ratio
    0.005,                    !- Zone Humidification Design Supply Air Humidity Ratio Difference
    ,                         !- Zone Humidistat Dehumidification Set Point Schedule Name
    ,                         !- Zone Humidistat Humidification Set Point Schedule Name
    Coincident,               !- Type of Space Sum to Use
    None,                     !- Heating Coil Sizing Method
    1;                        !- Maximum Heating Capacity To Cooling Load Sizing Ratio

SIZING:ZONE,
    2F_Area_B,                !- Zone or ZoneList Name
    SupplyAirTemperature,     !- Zone Cooling Design Supply Air Temperature Input Method
    12,                       !- Zone Cooling Design Supply Air Temperature
    ,                         !- Zone Cooling Design Supply Air Temperature Difference
    SupplyAirTemperature,     !- Zone Heating Design Supply Air Temperature Input Method
    50,                       !- Zone Heating Design Supply Air Temperature
    ,                         !- Zone Heating Design Supply Air Temperature Difference
    0.0085,                   !- Zone Cooling Design Supply Air Humidity Ratio
    0.008,                    !- Zone Heating Design Supply Air Humidity Ratio
    ,                         !- Design Specification Outdoor Air Object Name
    ,                         !- Zone Heating Sizing Factor
    ,                         !- Zone Cooling Sizing Factor
    DesignDay,                !- Cooling Design Air Flow Method
    0,                        !- Cooling Design Air Flow Rate
    0.000762,                 !- Cooling Minimum Air Flow per Zone Floor Area
    0,                        !- Cooling Minimum Air Flow
    0.2,                      !- Cooling Minimum Air Flow Fraction
    DesignDay,                !- Heating Design Air Flow Method
    0,                        !- Heating Design Air Flow Rate
    0.002032,                 !- Heating Maximum Air Flow per Zone Floor Area
    0.1415762,                !- Heating Maximum Air Flow
    0.3,                      !- Heating Maximum Air Flow Fraction
    ,                         !- Design Specification Zone Air Distribution Object Name
    No,                       !- Account for Dedicated Outdoor Air System
    NeutralSupplyAir,         !- Dedicated Outdoor Air System Control Strategy
    autosize,                 !- Dedicated Outdoor Air Low Setpoint Temperature for Design
    autosize,                 !- Dedicated Outdoor Air High Setpoint Temperature for Design
    Sensible Load Only No Latent Load,    !- Zone Load Sizing Method
    HumidityRatioDifference,    !- Zone Latent Cooling Design Supply Air Humidity Ratio Input Method
    ,                         !- Zone Dehumidification Design Supply Air Humidity Ratio
    0.005,                    !- Zone Cooling Design Supply Air Humidity Ratio Difference
    HumidityRatioDifference,    !- Zone Latent Heating Design Supply Air Humidity Ratio Input Method
    ,                         !- Zone Humidification Design Supply Air Humidity Ratio
    0.005,                    !- Zone Humidification Design Supply Air Humidity Ratio Difference
    ,                         !- Zone Humidistat Dehumidification Set Point Schedule Name
    ,                         !- Zone Humidistat Humidification Set Point Schedule Name
    Coincident,               !- Type of Space Sum to Use
    None,                     !- Heating Coil Sizing Method
    1;                        !- Maximum Heating Capacity To Cooling Load Sizing Ratio

ZONECONTROL:THERMOSTAT,
    1F_Library_IMC_Tstat,     !- Name
    1F_Library_IMC,           !- Zone or ZoneList Name
    SCH_ControlType,          !- Control Type Schedule Name
    ThermostatSetpoint:DualSetpoint,    !- Control 1 Object Type
    1F_Library_IMC_DualSP,    !- Control 1 Name
    ,                         !- Control 2 Object Type
    ,                         !- Control 2 Name
    ,                         !- Control 3 Object Type
    ,                         !- Control 3 Name
    ,                         !- Control 4 Object Type
    ,                         !- Control 4 Name
    0;                        !- Temperature Difference Between Cutout And Setpoint

ZONECONTROL:THERMOSTAT,
    1F_Cafe_Kitchen_Tstat,    !- Name
    1F_Cafe_Kitchen,          !- Zone or ZoneList Name
    SCH_ControlType,          !- Control Type Schedule Name
    ThermostatSetpoint:DualSetpoint,    !- Control 1 Object Type
    1F_Cafe_Kitchen_DualSP,    !- Control 1 Name
    ,                         !- Control 2 Object Type
    ,                         !- Control 2 Name
    ,                         !- Control 3 Object Type
    ,                         !- Control 3 Name
    ,                         !- Control 4 Object Type
    ,                         !- Control 4 Name
    0;                        !- Temperature Difference Between Cutout And Setpoint

ZONECONTROL:THERMOSTAT,
    1F_Gym_Tstat,             !- Name
    1F_Gym,                   !- Zone or ZoneList Name
    SCH_ControlType,          !- Control Type Schedule Name
    ThermostatSetpoint:DualSetpoint,    !- Control 1 Object Type
    1F_Gym_DualSP,            !- Control 1 Name
    ,                         !- Control 2 Object Type
    ,                         !- Control 2 Name
    ,                         !- Control 3 Object Type
    ,                         !- Control 3 Name
    ,                         !- Control 4 Object Type
    ,                         !- Control 4 Name
    0;                        !- Temperature Difference Between Cutout And Setpoint

ZONECONTROL:THERMOSTAT,
    1F_Area_A_Tstat,          !- Name
    1F_Area_A,                !- Zone or ZoneList Name
    SCH_ControlType,          !- Control Type Schedule Name
    ThermostatSetpoint:DualSetpoint,    !- Control 1 Object Type
    1F_Area_A_DualSP,         !- Control 1 Name
    ,                         !- Control 2 Object Type
    ,                         !- Control 2 Name
    ,                         !- Control 3 Object Type
    ,                         !- Control 3 Name
    ,                         !- Control 4 Object Type
    ,                         !- Control 4 Name
    0;                        !- Temperature Difference Between Cutout And Setpoint

ZONECONTROL:THERMOSTAT,
    1F_Area_B_Tstat,          !- Name
    1F_Area_B,                !- Zone or ZoneList Name
    SCH_ControlType,          !- Control Type Schedule Name
    ThermostatSetpoint:DualSetpoint,    !- Control 1 Object Type
    1F_Area_B_DualSP,         !- Control 1 Name
    ,                         !- Control 2 Object Type
    ,                         !- Control 2 Name
    ,                         !- Control 3 Object Type
    ,                         !- Control 3 Name
    ,                         !- Control 4 Object Type
    ,                         !- Control 4 Name
    0;                        !- Temperature Difference Between Cutout And Setpoint

ZONECONTROL:THERMOSTAT,
    1F_Area_C_Tstat,          !- Name
    1F_Area_C,                !- Zone or ZoneList Name
    SCH_ControlType,          !- Control Type Schedule Name
    ThermostatSetpoint:DualSetpoint,    !- Control 1 Object Type
    1F_Area_C_DualSP,         !- Control 1 Name
    ,                         !- Control 2 Object Type
    ,                         !- Control 2 Name
    ,                         !- Control 3 Object Type
    ,                         !- Control 3 Name
    ,                         !- Control 4 Object Type
    ,                         !- Control 4 Name
    0;                        !- Temperature Difference Between Cutout And Setpoint

ZONECONTROL:THERMOSTAT,
    1F_Area_D_Tstat,          !- Name
    1F_Area_D,                !- Zone or ZoneList Name
    SCH_ControlType,          !- Control Type Schedule Name
    ThermostatSetpoint:DualSetpoint,    !- Control 1 Object Type
    1F_Area_D_DualSP,         !- Control 1 Name
    ,                         !- Control 2 Object Type
    ,                         !- Control 2 Name
    ,                         !- Control 3 Object Type
    ,                         !- Control 3 Name
    ,                         !- Control 4 Object Type
    ,                         !- Control 4 Name
    0;                        !- Temperature Difference Between Cutout And Setpoint

ZONECONTROL:THERMOSTAT,
    2F_Area_A_Tstat,          !- Name
    2F_Area_A,                !- Zone or ZoneList Name
    SCH_ControlType,          !- Control Type Schedule Name
    ThermostatSetpoint:DualSetpoint,    !- Control 1 Object Type
    2F_Area_A_DualSP,         !- Control 1 Name
    ,                         !- Control 2 Object Type
    ,                         !- Control 2 Name
    ,                         !- Control 3 Object Type
    ,                         !- Control 3 Name
    ,                         !- Control 4 Object Type
    ,                         !- Control 4 Name
    0;                        !- Temperature Difference Between Cutout And Setpoint

ZONECONTROL:THERMOSTAT,
    2F_Area_B_Tstat,          !- Name
    2F_Area_B,                !- Zone or ZoneList Name
    SCH_ControlType,          !- Control Type Schedule Name
    ThermostatSetpoint:DualSetpoint,    !- Control 1 Object Type
    2F_Area_B_DualSP,         !- Control 1 Name
    ,                         !- Control 2 Object Type
    ,                         !- Control 2 Name
    ,                         !- Control 3 Object Type
    ,                         !- Control 3 Name
    ,                         !- Control 4 Object Type
    ,                         !- Control 4 Name
    0;                        !- Temperature Difference Between Cutout And Setpoint

THERMOSTATSETPOINT:DUALSETPOINT,
    1F_Library_IMC_DualSP,    !- Name
    SCH_HtgSP,                !- Heating Setpoint Temperature Schedule Name
    SCH_ClgSP;                !- Cooling Setpoint Temperature Schedule Name

THERMOSTATSETPOINT:DUALSETPOINT,
    1F_Cafe_Kitchen_DualSP,    !- Name
    SCH_HtgSP,                !- Heating Setpoint Temperature Schedule Name
    SCH_ClgSP;                !- Cooling Setpoint Temperature Schedule Name

THERMOSTATSETPOINT:DUALSETPOINT,
    1F_Gym_DualSP,            !- Name
    SCH_HtgSP,                !- Heating Setpoint Temperature Schedule Name
    SCH_ClgSP;                !- Cooling Setpoint Temperature Schedule Name

THERMOSTATSETPOINT:DUALSETPOINT,
    1F_Area_A_DualSP,         !- Name
    SCH_HtgSP,                !- Heating Setpoint Temperature Schedule Name
    SCH_ClgSP;                !- Cooling Setpoint Temperature Schedule Name

THERMOSTATSETPOINT:DUALSETPOINT,
    1F_Area_B_DualSP,         !- Name
    SCH_HtgSP,                !- Heating Setpoint Temperature Schedule Name
    SCH_ClgSP;                !- Cooling Setpoint Temperature Schedule Name

THERMOSTATSETPOINT:DUALSETPOINT,
    1F_Area_C_DualSP,         !- Name
    SCH_HtgSP,                !- Heating Setpoint Temperature Schedule Name
    SCH_ClgSP;                !- Cooling Setpoint Temperature Schedule Name

THERMOSTATSETPOINT:DUALSETPOINT,
    1F_Area_D_DualSP,         !- Name
    SCH_HtgSP,                !- Heating Setpoint Temperature Schedule Name
    SCH_ClgSP;                !- Cooling Setpoint Temperature Schedule Name

THERMOSTATSETPOINT:DUALSETPOINT,
    2F_Area_A_DualSP,         !- Name
    SCH_HtgSP,                !- Heating Setpoint Temperature Schedule Name
    SCH_ClgSP;                !- Cooling Setpoint Temperature Schedule Name

THERMOSTATSETPOINT:DUALSETPOINT,
    2F_Area_B_DualSP,         !- Name
    SCH_HtgSP,                !- Heating Setpoint Temperature Schedule Name
    SCH_ClgSP;                !- Cooling Setpoint Temperature Schedule Name

ZONEHVAC:IDEALLOADSAIRSYSTEM,
    1F_Library_IMC_Ideal,     !- Name
    SCH_HVAC,                 !- Availability Schedule Name
    1F_Library_IMC_InNode,    !- Zone Supply Air Node Name
    1F_Library_IMC_ExNode,    !- Zone Exhaust Air Node Name
    ,                         !- System Inlet Air Node Name
    50,                       !- Maximum Heating Supply Air Temperature
    13,                       !- Minimum Cooling Supply Air Temperature
    0.015,                    !- Maximum Heating Supply Air Humidity Ratio
    0.009,                    !- Minimum Cooling Supply Air Humidity Ratio
    NoLimit,                  !- Heating Limit
    ,                         !- Maximum Heating Air Flow Rate
    ,                         !- Maximum Sensible Heating Capacity
    NoLimit,                  !- Cooling Limit
    ,                         !- Maximum Cooling Air Flow Rate
    ,                         !- Maximum Total Cooling Capacity
    SCH_HVAC,                 !- Heating Availability Schedule Name
    SCH_HVAC,                 !- Cooling Availability Schedule Name
    ConstantSupplyHumidityRatio,    !- Dehumidification Control Type
    0.7,                      !- Cooling Sensible Heat Ratio
    ConstantSupplyHumidityRatio,    !- Humidification Control Type
    1F_Library_IMC_OA,        !- Design Specification Outdoor Air Object Name
    ,                         !- Outdoor Air Inlet Node Name
    None,                     !- Demand Controlled Ventilation Type
    NoEconomizer,             !- Outdoor Air Economizer Type
    Enthalpy,                 !- Heat Recovery Type
    0.7,                      !- Sensible Heat Recovery Effectiveness
    0.55,                     !- Latent Heat Recovery Effectiveness
    ,                         !- Design Specification ZoneHVAC Sizing Object Name
    ,                         !- Heating Fuel Efficiency Schedule Name
    DistrictHeatingWater,     !- Heating Fuel Type
    ,                         !- Cooling Fuel Efficiency Schedule Name
    DistrictCooling;          !- Cooling Fuel Type

ZONEHVAC:IDEALLOADSAIRSYSTEM,
    1F_Cafe_Kitchen_Ideal,    !- Name
    SCH_HVAC,                 !- Availability Schedule Name
    1F_Cafe_Kitchen_InNode,    !- Zone Supply Air Node Name
    1F_Cafe_Kitchen_ExNode,    !- Zone Exhaust Air Node Name
    ,                         !- System Inlet Air Node Name
    50,                       !- Maximum Heating Supply Air Temperature
    13,                       !- Minimum Cooling Supply Air Temperature
    0.015,                    !- Maximum Heating Supply Air Humidity Ratio
    0.009,                    !- Minimum Cooling Supply Air Humidity Ratio
    NoLimit,                  !- Heating Limit
    ,                         !- Maximum Heating Air Flow Rate
    ,                         !- Maximum Sensible Heating Capacity
    NoLimit,                  !- Cooling Limit
    ,                         !- Maximum Cooling Air Flow Rate
    ,                         !- Maximum Total Cooling Capacity
    SCH_HVAC,                 !- Heating Availability Schedule Name
    SCH_HVAC,                 !- Cooling Availability Schedule Name
    ConstantSupplyHumidityRatio,    !- Dehumidification Control Type
    0.7,                      !- Cooling Sensible Heat Ratio
    ConstantSupplyHumidityRatio,    !- Humidification Control Type
    1F_Cafe_Kitchen_OA,       !- Design Specification Outdoor Air Object Name
    ,                         !- Outdoor Air Inlet Node Name
    None,                     !- Demand Controlled Ventilation Type
    NoEconomizer,             !- Outdoor Air Economizer Type
    Enthalpy,                 !- Heat Recovery Type
    0.7,                      !- Sensible Heat Recovery Effectiveness
    0.55,                     !- Latent Heat Recovery Effectiveness
    ,                         !- Design Specification ZoneHVAC Sizing Object Name
    ,                         !- Heating Fuel Efficiency Schedule Name
    DistrictHeatingWater,     !- Heating Fuel Type
    ,                         !- Cooling Fuel Efficiency Schedule Name
    DistrictCooling;          !- Cooling Fuel Type

ZONEHVAC:IDEALLOADSAIRSYSTEM,
    1F_Gym_Ideal,             !- Name
    SCH_HVAC,                 !- Availability Schedule Name
    1F_Gym_InNode,            !- Zone Supply Air Node Name
    1F_Gym_ExNode,            !- Zone Exhaust Air Node Name
    ,                         !- System Inlet Air Node Name
    50,                       !- Maximum Heating Supply Air Temperature
    13,                       !- Minimum Cooling Supply Air Temperature
    0.015,                    !- Maximum Heating Supply Air Humidity Ratio
    0.009,                    !- Minimum Cooling Supply Air Humidity Ratio
    NoLimit,                  !- Heating Limit
    ,                         !- Maximum Heating Air Flow Rate
    ,                         !- Maximum Sensible Heating Capacity
    NoLimit,                  !- Cooling Limit
    ,                         !- Maximum Cooling Air Flow Rate
    ,                         !- Maximum Total Cooling Capacity
    SCH_HVAC,                 !- Heating Availability Schedule Name
    SCH_HVAC,                 !- Cooling Availability Schedule Name
    ConstantSupplyHumidityRatio,    !- Dehumidification Control Type
    0.7,                      !- Cooling Sensible Heat Ratio
    ConstantSupplyHumidityRatio,    !- Humidification Control Type
    1F_Gym_OA,                !- Design Specification Outdoor Air Object Name
    ,                         !- Outdoor Air Inlet Node Name
    None,                     !- Demand Controlled Ventilation Type
    NoEconomizer,             !- Outdoor Air Economizer Type
    Enthalpy,                 !- Heat Recovery Type
    0.7,                      !- Sensible Heat Recovery Effectiveness
    0.55,                     !- Latent Heat Recovery Effectiveness
    ,                         !- Design Specification ZoneHVAC Sizing Object Name
    ,                         !- Heating Fuel Efficiency Schedule Name
    DistrictHeatingWater,     !- Heating Fuel Type
    ,                         !- Cooling Fuel Efficiency Schedule Name
    DistrictCooling;          !- Cooling Fuel Type

ZONEHVAC:IDEALLOADSAIRSYSTEM,
    1F_Area_A_Ideal,          !- Name
    SCH_HVAC,                 !- Availability Schedule Name
    1F_Area_A_InNode,         !- Zone Supply Air Node Name
    1F_Area_A_ExNode,         !- Zone Exhaust Air Node Name
    ,                         !- System Inlet Air Node Name
    50,                       !- Maximum Heating Supply Air Temperature
    13,                       !- Minimum Cooling Supply Air Temperature
    0.015,                    !- Maximum Heating Supply Air Humidity Ratio
    0.009,                    !- Minimum Cooling Supply Air Humidity Ratio
    NoLimit,                  !- Heating Limit
    ,                         !- Maximum Heating Air Flow Rate
    ,                         !- Maximum Sensible Heating Capacity
    NoLimit,                  !- Cooling Limit
    ,                         !- Maximum Cooling Air Flow Rate
    ,                         !- Maximum Total Cooling Capacity
    SCH_HVAC,                 !- Heating Availability Schedule Name
    SCH_HVAC,                 !- Cooling Availability Schedule Name
    ConstantSupplyHumidityRatio,    !- Dehumidification Control Type
    0.7,                      !- Cooling Sensible Heat Ratio
    ConstantSupplyHumidityRatio,    !- Humidification Control Type
    1F_Area_A_OA,             !- Design Specification Outdoor Air Object Name
    ,                         !- Outdoor Air Inlet Node Name
    None,                     !- Demand Controlled Ventilation Type
    NoEconomizer,             !- Outdoor Air Economizer Type
    Enthalpy,                 !- Heat Recovery Type
    0.7,                      !- Sensible Heat Recovery Effectiveness
    0.55,                     !- Latent Heat Recovery Effectiveness
    ,                         !- Design Specification ZoneHVAC Sizing Object Name
    ,                         !- Heating Fuel Efficiency Schedule Name
    DistrictHeatingWater,     !- Heating Fuel Type
    ,                         !- Cooling Fuel Efficiency Schedule Name
    DistrictCooling;          !- Cooling Fuel Type

ZONEHVAC:IDEALLOADSAIRSYSTEM,
    1F_Area_B_Ideal,          !- Name
    SCH_HVAC,                 !- Availability Schedule Name
    1F_Area_B_InNode,         !- Zone Supply Air Node Name
    1F_Area_B_ExNode,         !- Zone Exhaust Air Node Name
    ,                         !- System Inlet Air Node Name
    50,                       !- Maximum Heating Supply Air Temperature
    13,                       !- Minimum Cooling Supply Air Temperature
    0.015,                    !- Maximum Heating Supply Air Humidity Ratio
    0.009,                    !- Minimum Cooling Supply Air Humidity Ratio
    NoLimit,                  !- Heating Limit
    ,                         !- Maximum Heating Air Flow Rate
    ,                         !- Maximum Sensible Heating Capacity
    NoLimit,                  !- Cooling Limit
    ,                         !- Maximum Cooling Air Flow Rate
    ,                         !- Maximum Total Cooling Capacity
    SCH_HVAC,                 !- Heating Availability Schedule Name
    SCH_HVAC,                 !- Cooling Availability Schedule Name
    ConstantSupplyHumidityRatio,    !- Dehumidification Control Type
    0.7,                      !- Cooling Sensible Heat Ratio
    ConstantSupplyHumidityRatio,    !- Humidification Control Type
    1F_Area_B_OA,             !- Design Specification Outdoor Air Object Name
    ,                         !- Outdoor Air Inlet Node Name
    None,                     !- Demand Controlled Ventilation Type
    NoEconomizer,             !- Outdoor Air Economizer Type
    Enthalpy,                 !- Heat Recovery Type
    0.7,                      !- Sensible Heat Recovery Effectiveness
    0.55,                     !- Latent Heat Recovery Effectiveness
    ,                         !- Design Specification ZoneHVAC Sizing Object Name
    ,                         !- Heating Fuel Efficiency Schedule Name
    DistrictHeatingWater,     !- Heating Fuel Type
    ,                         !- Cooling Fuel Efficiency Schedule Name
    DistrictCooling;          !- Cooling Fuel Type

ZONEHVAC:IDEALLOADSAIRSYSTEM,
    1F_Area_C_Ideal,          !- Name
    SCH_HVAC,                 !- Availability Schedule Name
    1F_Area_C_InNode,         !- Zone Supply Air Node Name
    1F_Area_C_ExNode,         !- Zone Exhaust Air Node Name
    ,                         !- System Inlet Air Node Name
    50,                       !- Maximum Heating Supply Air Temperature
    13,                       !- Minimum Cooling Supply Air Temperature
    0.015,                    !- Maximum Heating Supply Air Humidity Ratio
    0.009,                    !- Minimum Cooling Supply Air Humidity Ratio
    NoLimit,                  !- Heating Limit
    ,                         !- Maximum Heating Air Flow Rate
    ,                         !- Maximum Sensible Heating Capacity
    NoLimit,                  !- Cooling Limit
    ,                         !- Maximum Cooling Air Flow Rate
    ,                         !- Maximum Total Cooling Capacity
    SCH_HVAC,                 !- Heating Availability Schedule Name
    SCH_HVAC,                 !- Cooling Availability Schedule Name
    ConstantSupplyHumidityRatio,    !- Dehumidification Control Type
    0.7,                      !- Cooling Sensible Heat Ratio
    ConstantSupplyHumidityRatio,    !- Humidification Control Type
    1F_Area_C_OA,             !- Design Specification Outdoor Air Object Name
    ,                         !- Outdoor Air Inlet Node Name
    None,                     !- Demand Controlled Ventilation Type
    NoEconomizer,             !- Outdoor Air Economizer Type
    Enthalpy,                 !- Heat Recovery Type
    0.7,                      !- Sensible Heat Recovery Effectiveness
    0.55,                     !- Latent Heat Recovery Effectiveness
    ,                         !- Design Specification ZoneHVAC Sizing Object Name
    ,                         !- Heating Fuel Efficiency Schedule Name
    DistrictHeatingWater,     !- Heating Fuel Type
    ,                         !- Cooling Fuel Efficiency Schedule Name
    DistrictCooling;          !- Cooling Fuel Type

ZONEHVAC:IDEALLOADSAIRSYSTEM,
    1F_Area_D_Ideal,          !- Name
    SCH_HVAC,                 !- Availability Schedule Name
    1F_Area_D_InNode,         !- Zone Supply Air Node Name
    1F_Area_D_ExNode,         !- Zone Exhaust Air Node Name
    ,                         !- System Inlet Air Node Name
    50,                       !- Maximum Heating Supply Air Temperature
    13,                       !- Minimum Cooling Supply Air Temperature
    0.015,                    !- Maximum Heating Supply Air Humidity Ratio
    0.009,                    !- Minimum Cooling Supply Air Humidity Ratio
    NoLimit,                  !- Heating Limit
    ,                         !- Maximum Heating Air Flow Rate
    ,                         !- Maximum Sensible Heating Capacity
    NoLimit,                  !- Cooling Limit
    ,                         !- Maximum Cooling Air Flow Rate
    ,                         !- Maximum Total Cooling Capacity
    SCH_HVAC,                 !- Heating Availability Schedule Name
    SCH_HVAC,                 !- Cooling Availability Schedule Name
    ConstantSupplyHumidityRatio,    !- Dehumidification Control Type
    0.7,                      !- Cooling Sensible Heat Ratio
    ConstantSupplyHumidityRatio,    !- Humidification Control Type
    1F_Area_D_OA,             !- Design Specification Outdoor Air Object Name
    ,                         !- Outdoor Air Inlet Node Name
    None,                     !- Demand Controlled Ventilation Type
    NoEconomizer,             !- Outdoor Air Economizer Type
    Enthalpy,                 !- Heat Recovery Type
    0.7,                      !- Sensible Heat Recovery Effectiveness
    0.55,                     !- Latent Heat Recovery Effectiveness
    ,                         !- Design Specification ZoneHVAC Sizing Object Name
    ,                         !- Heating Fuel Efficiency Schedule Name
    DistrictHeatingWater,     !- Heating Fuel Type
    ,                         !- Cooling Fuel Efficiency Schedule Name
    DistrictCooling;          !- Cooling Fuel Type

ZONEHVAC:IDEALLOADSAIRSYSTEM,
    2F_Area_A_Ideal,          !- Name
    SCH_HVAC,                 !- Availability Schedule Name
    2F_Area_A_InNode,         !- Zone Supply Air Node Name
    2F_Area_A_ExNode,         !- Zone Exhaust Air Node Name
    ,                         !- System Inlet Air Node Name
    50,                       !- Maximum Heating Supply Air Temperature
    13,                       !- Minimum Cooling Supply Air Temperature
    0.015,                    !- Maximum Heating Supply Air Humidity Ratio
    0.009,                    !- Minimum Cooling Supply Air Humidity Ratio
    NoLimit,                  !- Heating Limit
    ,                         !- Maximum Heating Air Flow Rate
    ,                         !- Maximum Sensible Heating Capacity
    NoLimit,                  !- Cooling Limit
    ,                         !- Maximum Cooling Air Flow Rate
    ,                         !- Maximum Total Cooling Capacity
    SCH_HVAC,                 !- Heating Availability Schedule Name
    SCH_HVAC,                 !- Cooling Availability Schedule Name
    ConstantSupplyHumidityRatio,    !- Dehumidification Control Type
    0.7,                      !- Cooling Sensible Heat Ratio
    ConstantSupplyHumidityRatio,    !- Humidification Control Type
    2F_Area_A_OA,             !- Design Specification Outdoor Air Object Name
    ,                         !- Outdoor Air Inlet Node Name
    None,                     !- Demand Controlled Ventilation Type
    NoEconomizer,             !- Outdoor Air Economizer Type
    Enthalpy,                 !- Heat Recovery Type
    0.7,                      !- Sensible Heat Recovery Effectiveness
    0.55,                     !- Latent Heat Recovery Effectiveness
    ,                         !- Design Specification ZoneHVAC Sizing Object Name
    ,                         !- Heating Fuel Efficiency Schedule Name
    DistrictHeatingWater,     !- Heating Fuel Type
    ,                         !- Cooling Fuel Efficiency Schedule Name
    DistrictCooling;          !- Cooling Fuel Type

ZONEHVAC:IDEALLOADSAIRSYSTEM,
    2F_Area_B_Ideal,          !- Name
    SCH_HVAC,                 !- Availability Schedule Name
    2F_Area_B_InNode,         !- Zone Supply Air Node Name
    2F_Area_B_ExNode,         !- Zone Exhaust Air Node Name
    ,                         !- System Inlet Air Node Name
    50,                       !- Maximum Heating Supply Air Temperature
    13,                       !- Minimum Cooling Supply Air Temperature
    0.015,                    !- Maximum Heating Supply Air Humidity Ratio
    0.009,                    !- Minimum Cooling Supply Air Humidity Ratio
    NoLimit,                  !- Heating Limit
    ,                         !- Maximum Heating Air Flow Rate
    ,                         !- Maximum Sensible Heating Capacity
    NoLimit,                  !- Cooling Limit
    ,                         !- Maximum Cooling Air Flow Rate
    ,                         !- Maximum Total Cooling Capacity
    SCH_HVAC,                 !- Heating Availability Schedule Name
    SCH_HVAC,                 !- Cooling Availability Schedule Name
    ConstantSupplyHumidityRatio,    !- Dehumidification Control Type
    0.7,                      !- Cooling Sensible Heat Ratio
    ConstantSupplyHumidityRatio,    !- Humidification Control Type
    2F_Area_B_OA,             !- Design Specification Outdoor Air Object Name
    ,                         !- Outdoor Air Inlet Node Name
    None,                     !- Demand Controlled Ventilation Type
    NoEconomizer,             !- Outdoor Air Economizer Type
    Enthalpy,                 !- Heat Recovery Type
    0.7,                      !- Sensible Heat Recovery Effectiveness
    0.55,                     !- Latent Heat Recovery Effectiveness
    ,                         !- Design Specification ZoneHVAC Sizing Object Name
    ,                         !- Heating Fuel Efficiency Schedule Name
    DistrictHeatingWater,     !- Heating Fuel Type
    ,                         !- Cooling Fuel Efficiency Schedule Name
    DistrictCooling;          !- Cooling Fuel Type

ZONEHVAC:EQUIPMENTLIST,
    1F_Library_IMC_EqList,    !- Name
    SequentialLoad,           !- Load Distribution Scheme
    ZoneHVAC:IdealLoadsAirSystem,    !- Zone Equipment 1 Object Type
    1F_Library_IMC_Ideal,     !- Zone Equipment 1 Name
    1,                        !- Zone Equipment 1 Cooling Sequence
    1;                        !- Zone Equipment 1 Heating or NoLoad Sequence

ZONEHVAC:EQUIPMENTLIST,
    1F_Cafe_Kitchen_EqList,    !- Name
    SequentialLoad,           !- Load Distribution Scheme
    ZoneHVAC:IdealLoadsAirSystem,    !- Zone Equipment 1 Object Type
    1F_Cafe_Kitchen_Ideal,    !- Zone Equipment 1 Name
    1,                        !- Zone Equipment 1 Cooling Sequence
    1;                        !- Zone Equipment 1 Heating or NoLoad Sequence

ZONEHVAC:EQUIPMENTLIST,
    1F_Gym_EqList,            !- Name
    SequentialLoad,           !- Load Distribution Scheme
    ZoneHVAC:IdealLoadsAirSystem,    !- Zone Equipment 1 Object Type
    1F_Gym_Ideal,             !- Zone Equipment 1 Name
    1,                        !- Zone Equipment 1 Cooling Sequence
    1;                        !- Zone Equipment 1 Heating or NoLoad Sequence

ZONEHVAC:EQUIPMENTLIST,
    1F_Area_A_EqList,         !- Name
    SequentialLoad,           !- Load Distribution Scheme
    ZoneHVAC:IdealLoadsAirSystem,    !- Zone Equipment 1 Object Type
    1F_Area_A_Ideal,          !- Zone Equipment 1 Name
    1,                        !- Zone Equipment 1 Cooling Sequence
    1;                        !- Zone Equipment 1 Heating or NoLoad Sequence

ZONEHVAC:EQUIPMENTLIST,
    1F_Area_B_EqList,         !- Name
    SequentialLoad,           !- Load Distribution Scheme
    ZoneHVAC:IdealLoadsAirSystem,    !- Zone Equipment 1 Object Type
    1F_Area_B_Ideal,          !- Zone Equipment 1 Name
    1,                        !- Zone Equipment 1 Cooling Sequence
    1;                        !- Zone Equipment 1 Heating or NoLoad Sequence

ZONEHVAC:EQUIPMENTLIST,
    1F_Area_C_EqList,         !- Name
    SequentialLoad,           !- Load Distribution Scheme
    ZoneHVAC:IdealLoadsAirSystem,    !- Zone Equipment 1 Object Type
    1F_Area_C_Ideal,          !- Zone Equipment 1 Name
    1,                        !- Zone Equipment 1 Cooling Sequence
    1;                        !- Zone Equipment 1 Heating or NoLoad Sequence

ZONEHVAC:EQUIPMENTLIST,
    1F_Area_D_EqList,         !- Name
    SequentialLoad,           !- Load Distribution Scheme
    ZoneHVAC:IdealLoadsAirSystem,    !- Zone Equipment 1 Object Type
    1F_Area_D_Ideal,          !- Zone Equipment 1 Name
    1,                        !- Zone Equipment 1 Cooling Sequence
    1;                        !- Zone Equipment 1 Heating or NoLoad Sequence

ZONEHVAC:EQUIPMENTLIST,
    2F_Area_A_EqList,         !- Name
    SequentialLoad,           !- Load Distribution Scheme
    ZoneHVAC:IdealLoadsAirSystem,    !- Zone Equipment 1 Object Type
    2F_Area_A_Ideal,          !- Zone Equipment 1 Name
    1,                        !- Zone Equipment 1 Cooling Sequence
    1;                        !- Zone Equipment 1 Heating or NoLoad Sequence

ZONEHVAC:EQUIPMENTLIST,
    2F_Area_B_EqList,         !- Name
    SequentialLoad,           !- Load Distribution Scheme
    ZoneHVAC:IdealLoadsAirSystem,    !- Zone Equipment 1 Object Type
    2F_Area_B_Ideal,          !- Zone Equipment 1 Name
    1,                        !- Zone Equipment 1 Cooling Sequence
    1;                        !- Zone Equipment 1 Heating or NoLoad Sequence

ZONEHVAC:EQUIPMENTCONNECTIONS,
    1F_Library_IMC,           !- Zone Name
    1F_Library_IMC_EqList,    !- Zone Conditioning Equipment List Name
    1F_Library_IMC_InNode,    !- Zone Air Inlet Node or NodeList Name
    1F_Library_IMC_ExNode,    !- Zone Air Exhaust Node or NodeList Name
    1F_Library_IMC_ZoneNode;    !- Zone Air Node Name

ZONEHVAC:EQUIPMENTCONNECTIONS,
    1F_Cafe_Kitchen,          !- Zone Name
    1F_Cafe_Kitchen_EqList,    !- Zone Conditioning Equipment List Name
    1F_Cafe_Kitchen_InNode,    !- Zone Air Inlet Node or NodeList Name
    1F_Cafe_Kitchen_ExNode,    !- Zone Air Exhaust Node or NodeList Name
    1F_Cafe_Kitchen_ZoneNode;    !- Zone Air Node Name

ZONEHVAC:EQUIPMENTCONNECTIONS,
    1F_Gym,                   !- Zone Name
    1F_Gym_EqList,            !- Zone Conditioning Equipment List Name
    1F_Gym_InNode,            !- Zone Air Inlet Node or NodeList Name
    1F_Gym_ExNode,            !- Zone Air Exhaust Node or NodeList Name
    1F_Gym_ZoneNode;          !- Zone Air Node Name

ZONEHVAC:EQUIPMENTCONNECTIONS,
    1F_Area_A,                !- Zone Name
    1F_Area_A_EqList,         !- Zone Conditioning Equipment List Name
    1F_Area_A_InNode,         !- Zone Air Inlet Node or NodeList Name
    1F_Area_A_ExNode,         !- Zone Air Exhaust Node or NodeList Name
    1F_Area_A_ZoneNode;       !- Zone Air Node Name

ZONEHVAC:EQUIPMENTCONNECTIONS,
    1F_Area_B,                !- Zone Name
    1F_Area_B_EqList,         !- Zone Conditioning Equipment List Name
    1F_Area_B_InNode,         !- Zone Air Inlet Node or NodeList Name
    1F_Area_B_ExNode,         !- Zone Air Exhaust Node or NodeList Name
    1F_Area_B_ZoneNode;       !- Zone Air Node Name

ZONEHVAC:EQUIPMENTCONNECTIONS,
    1F_Area_C,                !- Zone Name
    1F_Area_C_EqList,         !- Zone Conditioning Equipment List Name
    1F_Area_C_InNode,         !- Zone Air Inlet Node or NodeList Name
    1F_Area_C_ExNode,         !- Zone Air Exhaust Node or NodeList Name
    1F_Area_C_ZoneNode;       !- Zone Air Node Name

ZONEHVAC:EQUIPMENTCONNECTIONS,
    1F_Area_D,                !- Zone Name
    1F_Area_D_EqList,         !- Zone Conditioning Equipment List Name
    1F_Area_D_InNode,         !- Zone Air Inlet Node or NodeList Name
    1F_Area_D_ExNode,         !- Zone Air Exhaust Node or NodeList Name
    1F_Area_D_ZoneNode;       !- Zone Air Node Name

ZONEHVAC:EQUIPMENTCONNECTIONS,
    2F_Area_A,                !- Zone Name
    2F_Area_A_EqList,         !- Zone Conditioning Equipment List Name
    2F_Area_A_InNode,         !- Zone Air Inlet Node or NodeList Name
    2F_Area_A_ExNode,         !- Zone Air Exhaust Node or NodeList Name
    2F_Area_A_ZoneNode;       !- Zone Air Node Name

ZONEHVAC:EQUIPMENTCONNECTIONS,
    2F_Area_B,                !- Zone Name
    2F_Area_B_EqList,         !- Zone Conditioning Equipment List Name
    2F_Area_B_InNode,         !- Zone Air Inlet Node or NodeList Name
    2F_Area_B_ExNode,         !- Zone Air Exhaust Node or NodeList Name
    2F_Area_B_ZoneNode;       !- Zone Air Node Name

OUTPUT:TABLE:SUMMARYREPORTS,
    AllSummary;               !- Report 1 Name

OUTPUTCONTROL:TABLE:STYLE,
    Comma,                    !- Column Separator
    None,                     !- Unit Conversion
    Yes;                      !- Format Numeric Values

OUTPUT:VARIABLE,
    *,                        !- Key Value
    Zone Mean Air Temperature,    !- Variable Name
    Hourly;                   !- Reporting Frequency

OUTPUT:VARIABLE,
    *,                        !- Key Value
    Zone Ideal Loads Supply Air Sensible Heating Energy,    !- Variable Name
    Monthly;                  !- Reporting Frequency

OUTPUT:VARIABLE,
    *,                        !- Key Value
    Zone Ideal Loads Supply Air Sensible Cooling Energy,    !- Variable Name
    Monthly;                  !- Reporting Frequency

OUTPUT:METER,
    Electricity:Facility,     !- Key Name
    Hourly;                   !- Reporting Frequency

OUTPUT:METER,
    Electricity:Facility,     !- Key Name
    Monthly;                  !- Reporting Frequency

OUTPUT:METER,
    InteriorLights:Electricity,    !- Key Name
    Monthly;                  !- Reporting Frequency

OUTPUT:METER,
    InteriorEquipment:Electricity,    !- Key Name
    Monthly;                  !- Reporting Frequency

OUTPUT:METER,
    DistrictHeatingWater:Facility,    !- Key Name
    Monthly;                  !- Reporting Frequency

OUTPUT:METER,
    DistrictCooling:Facility,    !- Key Name
    Monthly;                  !- Reporting Frequency