!- Stacked 6-floor DUAL-AHU office (2 zones/floor, 50/50 area)
!- Building: B100_dual_e01
!- Area: 140000 ft2 (13006 m2), 6 stories, WWR=0.76
!- HVAC: HVACTemplate VAV Sys 1 + VAV Sys 2 + shared WC chiller + boiler (autosize)
!- AHU1 = west half-plate zones; AHU2 = east half-plate zones

  Version,26.1;

  Building,
    B100_dual_e01,         !- Name
    0.0,                     !- North Axis {deg}
    City,                    !- Terrain
    0.04,                    !- Loads Convergence Tolerance Value
    0.4,                     !- Temperature Convergence Tolerance Value {deltaC}
    FullExterior,            !- Solar Distribution
    25,                      !- Maximum Number of Warmup Days
    6;                       !- Minimum Number of Warmup Days

  Timestep,4;

  SurfaceConvectionAlgorithm:Inside,TARP;
  SurfaceConvectionAlgorithm:Outside,DOE-2;
  HeatBalanceAlgorithm,ConductionTransferFunction;

  GlobalGeometryRules,
    UpperLeftCorner,         !- Starting Vertex Position
    CounterClockWise,        !- Vertex Entry Direction
    Relative;                !- Coordinate System

  Site:Location,
    Detroit_MI,              !- Name
    42.3314,                   !- Latitude {deg}
    -83.0458,                   !- Longitude {deg}
    -5.0,                    !- Time Zone {hr}
    183.0;           !- Elevation {m}

  SimulationControl,
    Yes,                     !- Do Zone Sizing Calculation
    Yes,                     !- Do System Sizing Calculation
    Yes,                     !- Do Plant Sizing Calculation
    No,                      !- Run Simulation for Sizing Periods
    Yes,                     !- Run Simulation for Weather File Run Periods
    No,                      !- Do HVAC Sizing Simulation for Sizing Periods
    1;                       !- Maximum Number of HVAC Sizing Simulation Passes

  SizingPeriod:DesignDay,
    Detroit Heating 99%,     !- Name
    1, 21, WinterDesignDay,
    -17.0, 0.0, , , Wetbulb, -17.0, , , , , 99500, 4.9, 270,
    No, No, No, ASHRAEClearSky, , , , , 0.0;

  SizingPeriod:DesignDay,
    Detroit Cooling 1%,      !- Name
    7, 21, SummerDesignDay,
    32.0, 10.5, , , Wetbulb, 23.0, , , , , 99500, 5.2, 230,
    No, No, No, ASHRAEClearSky, , , , , 1.0;

  RunPeriod,
    Annual,                  !- Name
    1,                       !- Begin Month
    1,                       !- Begin Day of Month
    ,                        !- Begin Year
    12,                      !- End Month
    31,                      !- End Day of Month
    ,                        !- End Year
    Sunday,                  !- Day of Week for Start Day
    Yes, Yes, No, Yes, Yes;

  ScheduleTypeLimits, Any Number;
  ScheduleTypeLimits, Fraction, 0.0, 1.0, CONTINUOUS;
  ScheduleTypeLimits, Temperature, -60, 200, CONTINUOUS, Temperature;
  ScheduleTypeLimits, Control Type, 0, 4, DISCRETE;
  ScheduleTypeLimits, On/Off, 0, 1, DISCRETE;

  Schedule:Compact,
    Always On, Fraction,
    Through: 12/31, For: AllDays, Until: 24:00, 1.0;

  Schedule:Compact,
    Activity level, Any Number,
    Through: 12/31, For: AllDays, Until: 24:00, 120;

          Schedule:Compact,
  FanAvailSched, On/Off,
  Through: 2/28,
  For: Weekdays SummerDesignDay,
  Until: 10:00, 0.0, Until: 20:00, 1.0, Until: 24:00, 0.0,
  For: Saturday,
  Until: 10:00, 0.0, Until: 18:00, 1.0, Until: 24:00, 0.0,
  For: AllOtherDays,
  Until: 24:00, 0.0,
  Through: 6/30,
  For: Weekdays SummerDesignDay,
  Until: 9:00, 0.0, Until: 19:00, 1.0, Until: 24:00, 0.0,
  For: Saturday,
  Until: 9:00, 0.0, Until: 17:00, 1.0, Until: 24:00, 0.0,
  For: AllOtherDays,
  Until: 24:00, 0.0,
  Through: 7/31,
  For: Weekdays SummerDesignDay,
  Until: 9:00, 0.0, Until: 23:00, 1.0, Until: 24:00, 0.0,
  For: Saturday,
  Until: 9:00, 0.0, Until: 20:00, 1.0, Until: 24:00, 0.0,
  For: AllOtherDays,
  Until: 24:00, 0.0,
  Through: 8/31,
  For: AllDays,
  Until: 24:00, 1.0,
  Through: 9/30,
  For: Weekdays SummerDesignDay,
  Until: 9:00, 0.0, Until: 23:00, 1.0, Until: 24:00, 0.0,
  For: Saturday,
  Until: 9:00, 0.0, Until: 20:00, 1.0, Until: 24:00, 0.0,
  For: AllOtherDays,
  Until: 24:00, 0.0,
  Through: 10/31,
  For: Weekdays SummerDesignDay,
  Until: 7:00, 0.0, Until: 23:00, 1.0, Until: 24:00, 0.0,
  For: Saturday,
  Until: 8:00, 0.0, Until: 22:00, 1.0, Until: 24:00, 0.0,
  For: AllOtherDays,
  Until: 10:00, 0.0, Until: 18:00, 1.0, Until: 24:00, 0.0,
  Through: 12/31,
  For: Weekdays SummerDesignDay,
  Until: 10:00, 0.0, Until: 18:00, 1.0, Until: 24:00, 0.0,
  For: Saturday,
  Until: 10:00, 0.0, Until: 16:00, 1.0, Until: 24:00, 0.0,
  For: AllOtherDays,
  Until: 24:00, 0.0;





      Schedule:Compact,
  Min OA Sched, Fraction,
  Through: 1/31,
  For: AllDays,
  Until: 24:00, 0.0,
  Through: 2/28,
  For: Weekdays SummerDesignDay,
  Until: 5:00, 0.0, Until: 23:00, 1.0, Until: 24:00, 0.0,
  For: Saturday,
  Until: 6:00, 0.0, Until: 20:00, 1.0, Until: 24:00, 0.0,
  For: AllOtherDays,
  Until: 24:00, 0.3,
  Through: 6/30,
  For: Weekdays SummerDesignDay,
  Until: 10:00, 0.0, Until: 18:00, 1.0, Until: 24:00, 0.0,
  For: Saturday,
  Until: 10:00, 0.0, Until: 16:00, 1.0, Until: 24:00, 0.0,
  For: AllOtherDays,
  Until: 24:00, 0.0,
  Through: 7/31,
  For: Weekdays SummerDesignDay,
  Until: 6:00, 0.0, Until: 22:00, 1.0, Until: 24:00, 0.0,
  For: Saturday,
  Until: 6:00, 0.0, Until: 18:00, 1.0, Until: 24:00, 0.0,
  For: AllOtherDays,
  Until: 24:00, 0.0,
  Through: 8/31,
  For: AllDays,
  Until: 24:00, 0.0,
  Through: 9/30,
  For: Weekdays SummerDesignDay,
  Until: 6:00, 0.0, Until: 22:00, 1.0, Until: 24:00, 0.0,
  For: Saturday,
  Until: 6:00, 0.0, Until: 18:00, 1.0, Until: 24:00, 0.0,
  For: AllOtherDays,
  Until: 24:00, 0.0,
  Through: 10/31,
  For: Weekdays SummerDesignDay,
  Until: 7:00, 0.0, Until: 23:00, 0.15, Until: 24:00, 0.0,
  For: Saturday,
  Until: 8:00, 0.0, Until: 22:00, 0.15, Until: 24:00, 0.0,
  For: AllOtherDays,
  Until: 24:00, 0.0,
  Through: 12/31,
  For: Weekdays SummerDesignDay,
  Until: 10:00, 0.0, Until: 16:00, 1.0, Until: 24:00, 0.0,
  For: Saturday,
  Until: 24:00, 0.0,
  For: AllOtherDays,
  Until: 24:00, 0.0;



  Schedule:Compact,
    BLDG_OCC_SCH, Fraction,
    Through: 12/31,
    For: Weekdays SummerDesignDay,
    Until: 6:00, 0.0, Until: 7:00, 0.1, Until: 8:00, 0.2, Until: 12:00, 0.95,
    Until: 13:00, 0.5, Until: 17:00, 0.95, Until: 18:00, 0.3, Until: 22:00, 0.1, Until: 24:00, 0.05,
    For: Saturday,
    Until: 6:00, 0.0, Until: 8:00, 0.1, Until: 12:00, 0.3, Until: 17:00, 0.1, Until: 24:00, 0.0,
    For: AllOtherDays, Until: 24:00, 0.0;

  Schedule:Compact,
    BLDG_LIGHT_SCH, Fraction,
    Through: 12/31,
    For: Weekdays SummerDesignDay,
    Until: 6:00, 0.05, Until: 7:00, 0.1, Until: 17:00, 0.9, Until: 22:00, 0.3, Until: 24:00, 0.05,
    For: Saturday,
    Until: 6:00, 0.05, Until: 8:00, 0.1, Until: 17:00, 0.3, Until: 24:00, 0.05,
    For: AllOtherDays, Until: 24:00, 0.05;

  Schedule:Compact,
    BLDG_EQUIP_SCH, Fraction,
    Through: 12/31,
    For: Weekdays SummerDesignDay,
    Until: 6:00, 0.4, Until: 7:00, 0.4, Until: 8:00, 0.4, Until: 12:00, 0.9,
    Until: 13:00, 0.8, Until: 17:00, 0.9, Until: 18:00, 0.5, Until: 24:00, 0.4,
    For: Saturday,
    Until: 6:00, 0.3, Until: 18:00, 0.4, Until: 24:00, 0.3,
    For: AllOtherDays, Until: 24:00, 0.3;

  Schedule:Compact,
    BLDG_INFIL_SCH, Fraction,
    Through: 12/31,
    For: Weekdays SummerDesignDay,
    Until: 6:00, 1.0, Until: 22:00, 0.25, Until: 24:00, 1.0,
    For: Saturday,
    Until: 6:00, 1.0, Until: 18:00, 0.25, Until: 24:00, 1.0,
    For: AllOtherDays, Until: 24:00, 1.0;

  Schedule:Compact,
    Htg-SetP-Sch, Temperature,
    Through: 12/31,
    For: Weekdays SummerDesignDay,
    Until: 6:00, 15.6, Until: 22:00, 21.0, Until: 24:00, 15.6,
    For: Saturday,
    Until: 6:00, 15.6, Until: 18:00, 21.0, Until: 24:00, 15.6,
    For: AllOtherDays, Until: 24:00, 15.6;

  Schedule:Compact,
    Clg-SetP-Sch, Temperature,
    Through: 12/31,
    For: Weekdays SummerDesignDay,
    Until: 6:00, 30.0, Until: 22:00, 24.0, Until: 24:00, 30.0,
    For: Saturday,
    Until: 6:00, 30.0, Until: 18:00, 24.0, Until: 24:00, 30.0,
    For: AllOtherDays, Until: 24:00, 30.0;

  Material,
    Concrete Floor, MediumRough, 0.15, 1.4, 2100, 800, 0.9, 0.7, 0.7;
  Material,
    Wall Insulation, MediumRough, 0.08, 0.04, 40, 800, 0.9, 0.7, 0.7;
  Material,
    Gypsum, Smooth, 0.0127, 0.16, 800, 1000, 0.9, 0.7, 0.7;
  Material,
    Roof Insulation, MediumRough, 0.12, 0.04, 40, 800, 0.9, 0.7, 0.7;
  Material,
    Stucco, MediumRough, 0.025, 0.7, 1800, 800, 0.9, 0.7, 0.7;

  Construction,
    Ext Wall, Stucco, Wall Insulation, Gypsum;
  Construction,
    Ext Roof, Roof Insulation, Concrete Floor;
  Construction,
    Ext Floor, Concrete Floor;
  Construction,
    Int Floor, Concrete Floor;
  Construction,
    Int Partition, Gypsum, Wall Insulation, Gypsum;

  WindowMaterial:SimpleGlazingSystem,
    Exterior Window Glass, 4.543, 0.55;
  Construction,
    Exterior Window, Exterior Window Glass;

  Sizing:Parameters, 1.2, 1.2;


  Zone,
    Floor_1_AHU1, 0, 0, 0, 0, 1, 1, autocalculate, autocalculate, autocalculate, , , Yes;


  BuildingSurface:Detailed,
    Floor_1_AHU1_Floor,                  !- Name
    Floor,                 !- Surface Type
    Ext Floor,                !- Construction Name
    Floor_1_AHU1,                  !- Zone Name
    ,                        !- Space Name
    Ground,                   !- Outside Boundary Condition
    ,                        !- Outside Boundary Condition Object
    NoSun,                   !- Sun Exposure
    NoWind,                  !- Wind Exposure
    AutoCalculate,           !- View Factor to Ground
    4,                       !- Number of Vertices
    0.0000,38.0152,0.0000,  !- X,Y,Z ==> Vertex 1
    0.0000,0.0000,0.0000,  !- X,Y,Z ==> Vertex 2
    28.5114,0.0000,0.0000,  !- X,Y,Z ==> Vertex 3
    28.5114,38.0152,0.0000;  !- X,Y,Z ==> Vertex 4


  BuildingSurface:Detailed,
    Floor_1_AHU1_Ceiling,                  !- Name
    Ceiling,                 !- Surface Type
    Int Floor,                !- Construction Name
    Floor_1_AHU1,                  !- Zone Name
    ,                        !- Space Name
    Surface,                   !- Outside Boundary Condition
    Floor_2_AHU1_Floor,                        !- Outside Boundary Condition Object
    NoSun,                   !- Sun Exposure
    NoWind,                  !- Wind Exposure
    AutoCalculate,           !- View Factor to Ground
    4,                       !- Number of Vertices
    0.0000,38.0152,3.9624,  !- X,Y,Z ==> Vertex 1
    28.5114,38.0152,3.9624,  !- X,Y,Z ==> Vertex 2
    28.5114,0.0000,3.9624,  !- X,Y,Z ==> Vertex 3
    0.0000,0.0000,3.9624;  !- X,Y,Z ==> Vertex 4


  BuildingSurface:Detailed,
    Floor_1_AHU1_Wall_S,                  !- Name
    Wall,                 !- Surface Type
    Ext Wall,                !- Construction Name
    Floor_1_AHU1,                  !- Zone Name
    ,                        !- Space Name
    Outdoors,                   !- Outside Boundary Condition
    ,                        !- Outside Boundary Condition Object
    SunExposed,                   !- Sun Exposure
    WindExposed,                  !- Wind Exposure
    AutoCalculate,           !- View Factor to Ground
    4,                       !- Number of Vertices
    0.0000,0.0000,3.9624,  !- X,Y,Z ==> Vertex 1
    28.5114,0.0000,3.9624,  !- X,Y,Z ==> Vertex 2
    28.5114,0.0000,0.0000,  !- X,Y,Z ==> Vertex 3
    0.0000,0.0000,0.0000;  !- X,Y,Z ==> Vertex 4


  FenestrationSurface:Detailed,
    Floor_1_AHU1_Wall_S_Win,                  !- Name
    Window,                  !- Surface Type
    Exterior Window,         !- Construction Name
    Floor_1_AHU1_Wall_S,             !- Building Surface Name
    ,                        !- Outside Boundary Condition Object
    AutoCalculate,           !- View Factor to Ground
    ,                        !- Frame and Divider Name
    1.0,                     !- Multiplier
    4,                       !- Number of Vertices
    1.8279,0.0000,3.7084,  !- X,Y,Z ==> Vertex 1
    26.6836,0.0000,3.7084,  !- X,Y,Z ==> Vertex 2
    26.6836,0.0000,0.2540,  !- X,Y,Z ==> Vertex 3
    1.8279,0.0000,0.2540;  !- X,Y,Z ==> Vertex 4


  BuildingSurface:Detailed,
    Floor_1_AHU1_Wall_N,                  !- Name
    Wall,                 !- Surface Type
    Ext Wall,                !- Construction Name
    Floor_1_AHU1,                  !- Zone Name
    ,                        !- Space Name
    Outdoors,                   !- Outside Boundary Condition
    ,                        !- Outside Boundary Condition Object
    SunExposed,                   !- Sun Exposure
    WindExposed,                  !- Wind Exposure
    AutoCalculate,           !- View Factor to Ground
    4,                       !- Number of Vertices
    28.5114,38.0152,3.9624,  !- X,Y,Z ==> Vertex 1
    0.0000,38.0152,3.9624,  !- X,Y,Z ==> Vertex 2
    0.0000,38.0152,0.0000,  !- X,Y,Z ==> Vertex 3
    28.5114,38.0152,0.0000;  !- X,Y,Z ==> Vertex 4


  FenestrationSurface:Detailed,
    Floor_1_AHU1_Wall_N_Win,                  !- Name
    Window,                  !- Surface Type
    Exterior Window,         !- Construction Name
    Floor_1_AHU1_Wall_N,             !- Building Surface Name
    ,                        !- Outside Boundary Condition Object
    AutoCalculate,           !- View Factor to Ground
    ,                        !- Frame and Divider Name
    1.0,                     !- Multiplier
    4,                       !- Number of Vertices
    26.6836,38.0152,3.7084,  !- X,Y,Z ==> Vertex 1
    1.8279,38.0152,3.7084,  !- X,Y,Z ==> Vertex 2
    1.8279,38.0152,0.2540,  !- X,Y,Z ==> Vertex 3
    26.6836,38.0152,0.2540;  !- X,Y,Z ==> Vertex 4


  BuildingSurface:Detailed,
    Floor_1_AHU1_Wall_W,                  !- Name
    Wall,                 !- Surface Type
    Ext Wall,                !- Construction Name
    Floor_1_AHU1,                  !- Zone Name
    ,                        !- Space Name
    Outdoors,                   !- Outside Boundary Condition
    ,                        !- Outside Boundary Condition Object
    SunExposed,                   !- Sun Exposure
    WindExposed,                  !- Wind Exposure
    AutoCalculate,           !- View Factor to Ground
    4,                       !- Number of Vertices
    0.0000,38.0152,3.9624,  !- X,Y,Z ==> Vertex 1
    0.0000,0.0000,3.9624,  !- X,Y,Z ==> Vertex 2
    0.0000,0.0000,0.0000,  !- X,Y,Z ==> Vertex 3
    0.0000,38.0152,0.0000;  !- X,Y,Z ==> Vertex 4


  FenestrationSurface:Detailed,
    Floor_1_AHU1_Wall_W_Win,                  !- Name
    Window,                  !- Surface Type
    Exterior Window,         !- Construction Name
    Floor_1_AHU1_Wall_W,             !- Building Surface Name
    ,                        !- Outside Boundary Condition Object
    AutoCalculate,           !- View Factor to Ground
    ,                        !- Frame and Divider Name
    1.0,                     !- Multiplier
    4,                       !- Number of Vertices
    0.0000,35.5781,3.7084,  !- X,Y,Z ==> Vertex 1
    0.0000,2.4372,3.7084,  !- X,Y,Z ==> Vertex 2
    0.0000,2.4372,0.2540,  !- X,Y,Z ==> Vertex 3
    0.0000,35.5781,0.2540;  !- X,Y,Z ==> Vertex 4


  People, Floor_1_AHU1_People, Floor_1_AHU1, BLDG_OCC_SCH, People/Area, , 0.053821, , 0.3, , Activity level;
  Lights, Floor_1_AHU1_Lights, Floor_1_AHU1, BLDG_LIGHT_SCH, Watts/Area, , 10.5, , 0.2, 0.2, 0.2, 1, General;
  ElectricEquipment, Floor_1_AHU1_Equip, Floor_1_AHU1, BLDG_EQUIP_SCH, Watts/Area, , 8.0, , 0, 0.5, 0, General;
  ZoneInfiltration:DesignFlowRate, Floor_1_AHU1_Infil, Floor_1_AHU1, BLDG_INFIL_SCH, AirChanges/Hour, , , , 1.0, 1, 0, 0, 0;


  Zone,
    Floor_1_AHU2, 0, 0, 0, 0, 1, 1, autocalculate, autocalculate, autocalculate, , , Yes;


  BuildingSurface:Detailed,
    Floor_1_AHU2_Floor,                  !- Name
    Floor,                 !- Surface Type
    Ext Floor,                !- Construction Name
    Floor_1_AHU2,                  !- Zone Name
    ,                        !- Space Name
    Ground,                   !- Outside Boundary Condition
    ,                        !- Outside Boundary Condition Object
    NoSun,                   !- Sun Exposure
    NoWind,                  !- Wind Exposure
    AutoCalculate,           !- View Factor to Ground
    4,                       !- Number of Vertices
    28.5114,38.0152,0.0000,  !- X,Y,Z ==> Vertex 1
    28.5114,0.0000,0.0000,  !- X,Y,Z ==> Vertex 2
    57.0229,0.0000,0.0000,  !- X,Y,Z ==> Vertex 3
    57.0229,38.0152,0.0000;  !- X,Y,Z ==> Vertex 4


  BuildingSurface:Detailed,
    Floor_1_AHU2_Ceiling,                  !- Name
    Ceiling,                 !- Surface Type
    Int Floor,                !- Construction Name
    Floor_1_AHU2,                  !- Zone Name
    ,                        !- Space Name
    Surface,                   !- Outside Boundary Condition
    Floor_2_AHU2_Floor,                        !- Outside Boundary Condition Object
    NoSun,                   !- Sun Exposure
    NoWind,                  !- Wind Exposure
    AutoCalculate,           !- View Factor to Ground
    4,                       !- Number of Vertices
    28.5114,38.0152,3.9624,  !- X,Y,Z ==> Vertex 1
    57.0229,38.0152,3.9624,  !- X,Y,Z ==> Vertex 2
    57.0229,0.0000,3.9624,  !- X,Y,Z ==> Vertex 3
    28.5114,0.0000,3.9624;  !- X,Y,Z ==> Vertex 4


  BuildingSurface:Detailed,
    Floor_1_AHU2_Wall_S,                  !- Name
    Wall,                 !- Surface Type
    Ext Wall,                !- Construction Name
    Floor_1_AHU2,                  !- Zone Name
    ,                        !- Space Name
    Outdoors,                   !- Outside Boundary Condition
    ,                        !- Outside Boundary Condition Object
    SunExposed,                   !- Sun Exposure
    WindExposed,                  !- Wind Exposure
    AutoCalculate,           !- View Factor to Ground
    4,                       !- Number of Vertices
    28.5114,0.0000,3.9624,  !- X,Y,Z ==> Vertex 1
    57.0229,0.0000,3.9624,  !- X,Y,Z ==> Vertex 2
    57.0229,0.0000,0.0000,  !- X,Y,Z ==> Vertex 3
    28.5114,0.0000,0.0000;  !- X,Y,Z ==> Vertex 4


  FenestrationSurface:Detailed,
    Floor_1_AHU2_Wall_S_Win,                  !- Name
    Window,                  !- Surface Type
    Exterior Window,         !- Construction Name
    Floor_1_AHU2_Wall_S,             !- Building Surface Name
    ,                        !- Outside Boundary Condition Object
    AutoCalculate,           !- View Factor to Ground
    ,                        !- Frame and Divider Name
    1.0,                     !- Multiplier
    4,                       !- Number of Vertices
    30.3393,0.0000,3.7084,  !- X,Y,Z ==> Vertex 1
    55.1950,0.0000,3.7084,  !- X,Y,Z ==> Vertex 2
    55.1950,0.0000,0.2540,  !- X,Y,Z ==> Vertex 3
    30.3393,0.0000,0.2540;  !- X,Y,Z ==> Vertex 4


  BuildingSurface:Detailed,
    Floor_1_AHU2_Wall_N,                  !- Name
    Wall,                 !- Surface Type
    Ext Wall,                !- Construction Name
    Floor_1_AHU2,                  !- Zone Name
    ,                        !- Space Name
    Outdoors,                   !- Outside Boundary Condition
    ,                        !- Outside Boundary Condition Object
    SunExposed,                   !- Sun Exposure
    WindExposed,                  !- Wind Exposure
    AutoCalculate,           !- View Factor to Ground
    4,                       !- Number of Vertices
    57.0229,38.0152,3.9624,  !- X,Y,Z ==> Vertex 1
    28.5114,38.0152,3.9624,  !- X,Y,Z ==> Vertex 2
    28.5114,38.0152,0.0000,  !- X,Y,Z ==> Vertex 3
    57.0229,38.0152,0.0000;  !- X,Y,Z ==> Vertex 4


  FenestrationSurface:Detailed,
    Floor_1_AHU2_Wall_N_Win,                  !- Name
    Window,                  !- Surface Type
    Exterior Window,         !- Construction Name
    Floor_1_AHU2_Wall_N,             !- Building Surface Name
    ,                        !- Outside Boundary Condition Object
    AutoCalculate,           !- View Factor to Ground
    ,                        !- Frame and Divider Name
    1.0,                     !- Multiplier
    4,                       !- Number of Vertices
    55.1950,38.0152,3.7084,  !- X,Y,Z ==> Vertex 1
    30.3393,38.0152,3.7084,  !- X,Y,Z ==> Vertex 2
    30.3393,38.0152,0.2540,  !- X,Y,Z ==> Vertex 3
    55.1950,38.0152,0.2540;  !- X,Y,Z ==> Vertex 4


  BuildingSurface:Detailed,
    Floor_1_AHU2_Wall_E,                  !- Name
    Wall,                 !- Surface Type
    Ext Wall,                !- Construction Name
    Floor_1_AHU2,                  !- Zone Name
    ,                        !- Space Name
    Outdoors,                   !- Outside Boundary Condition
    ,                        !- Outside Boundary Condition Object
    SunExposed,                   !- Sun Exposure
    WindExposed,                  !- Wind Exposure
    AutoCalculate,           !- View Factor to Ground
    4,                       !- Number of Vertices
    57.0229,0.0000,3.9624,  !- X,Y,Z ==> Vertex 1
    57.0229,38.0152,3.9624,  !- X,Y,Z ==> Vertex 2
    57.0229,38.0152,0.0000,  !- X,Y,Z ==> Vertex 3
    57.0229,0.0000,0.0000;  !- X,Y,Z ==> Vertex 4


  FenestrationSurface:Detailed,
    Floor_1_AHU2_Wall_E_Win,                  !- Name
    Window,                  !- Surface Type
    Exterior Window,         !- Construction Name
    Floor_1_AHU2_Wall_E,             !- Building Surface Name
    ,                        !- Outside Boundary Condition Object
    AutoCalculate,           !- View Factor to Ground
    ,                        !- Frame and Divider Name
    1.0,                     !- Multiplier
    4,                       !- Number of Vertices
    57.0229,2.4372,3.7084,  !- X,Y,Z ==> Vertex 1
    57.0229,35.5781,3.7084,  !- X,Y,Z ==> Vertex 2
    57.0229,35.5781,0.2540,  !- X,Y,Z ==> Vertex 3
    57.0229,2.4372,0.2540;  !- X,Y,Z ==> Vertex 4


  People, Floor_1_AHU2_People, Floor_1_AHU2, BLDG_OCC_SCH, People/Area, , 0.053821, , 0.3, , Activity level;
  Lights, Floor_1_AHU2_Lights, Floor_1_AHU2, BLDG_LIGHT_SCH, Watts/Area, , 10.5, , 0.2, 0.2, 0.2, 1, General;
  ElectricEquipment, Floor_1_AHU2_Equip, Floor_1_AHU2, BLDG_EQUIP_SCH, Watts/Area, , 8.0, , 0, 0.5, 0, General;
  ZoneInfiltration:DesignFlowRate, Floor_1_AHU2_Infil, Floor_1_AHU2, BLDG_INFIL_SCH, AirChanges/Hour, , , , 1.0, 1, 0, 0, 0;


  BuildingSurface:Detailed,
    Floor_1_AHU1_Partition_E,                  !- Name
    Wall,                 !- Surface Type
    Int Partition,                !- Construction Name
    Floor_1_AHU1,                  !- Zone Name
    ,                        !- Space Name
    Surface,                   !- Outside Boundary Condition
    Floor_1_AHU2_Partition_W,                        !- Outside Boundary Condition Object
    NoSun,                   !- Sun Exposure
    NoWind,                  !- Wind Exposure
    AutoCalculate,           !- View Factor to Ground
    4,                       !- Number of Vertices
    28.5114,0.0000,3.9624,  !- X,Y,Z ==> Vertex 1
    28.5114,38.0152,3.9624,  !- X,Y,Z ==> Vertex 2
    28.5114,38.0152,0.0000,  !- X,Y,Z ==> Vertex 3
    28.5114,0.0000,0.0000;  !- X,Y,Z ==> Vertex 4


  BuildingSurface:Detailed,
    Floor_1_AHU2_Partition_W,                  !- Name
    Wall,                 !- Surface Type
    Int Partition,                !- Construction Name
    Floor_1_AHU2,                  !- Zone Name
    ,                        !- Space Name
    Surface,                   !- Outside Boundary Condition
    Floor_1_AHU1_Partition_E,                        !- Outside Boundary Condition Object
    NoSun,                   !- Sun Exposure
    NoWind,                  !- Wind Exposure
    AutoCalculate,           !- View Factor to Ground
    4,                       !- Number of Vertices
    28.5114,38.0152,3.9624,  !- X,Y,Z ==> Vertex 1
    28.5114,0.0000,3.9624,  !- X,Y,Z ==> Vertex 2
    28.5114,0.0000,0.0000,  !- X,Y,Z ==> Vertex 3
    28.5114,38.0152,0.0000;  !- X,Y,Z ==> Vertex 4


  Zone,
    Floor_2_AHU1, 0, 0, 0, 0, 1, 1, autocalculate, autocalculate, autocalculate, , , Yes;


  BuildingSurface:Detailed,
    Floor_2_AHU1_Floor,                  !- Name
    Floor,                 !- Surface Type
    Int Floor,                !- Construction Name
    Floor_2_AHU1,                  !- Zone Name
    ,                        !- Space Name
    Surface,                   !- Outside Boundary Condition
    Floor_1_AHU1_Ceiling,                        !- Outside Boundary Condition Object
    NoSun,                   !- Sun Exposure
    NoWind,                  !- Wind Exposure
    AutoCalculate,           !- View Factor to Ground
    4,                       !- Number of Vertices
    0.0000,38.0152,3.9624,  !- X,Y,Z ==> Vertex 1
    0.0000,0.0000,3.9624,  !- X,Y,Z ==> Vertex 2
    28.5114,0.0000,3.9624,  !- X,Y,Z ==> Vertex 3
    28.5114,38.0152,3.9624;  !- X,Y,Z ==> Vertex 4


  BuildingSurface:Detailed,
    Floor_2_AHU1_Ceiling,                  !- Name
    Ceiling,                 !- Surface Type
    Int Floor,                !- Construction Name
    Floor_2_AHU1,                  !- Zone Name
    ,                        !- Space Name
    Surface,                   !- Outside Boundary Condition
    Floor_3_AHU1_Floor,                        !- Outside Boundary Condition Object
    NoSun,                   !- Sun Exposure
    NoWind,                  !- Wind Exposure
    AutoCalculate,           !- View Factor to Ground
    4,                       !- Number of Vertices
    0.0000,38.0152,7.9248,  !- X,Y,Z ==> Vertex 1
    28.5114,38.0152,7.9248,  !- X,Y,Z ==> Vertex 2
    28.5114,0.0000,7.9248,  !- X,Y,Z ==> Vertex 3
    0.0000,0.0000,7.9248;  !- X,Y,Z ==> Vertex 4


  BuildingSurface:Detailed,
    Floor_2_AHU1_Wall_S,                  !- Name
    Wall,                 !- Surface Type
    Ext Wall,                !- Construction Name
    Floor_2_AHU1,                  !- Zone Name
    ,                        !- Space Name
    Outdoors,                   !- Outside Boundary Condition
    ,                        !- Outside Boundary Condition Object
    SunExposed,                   !- Sun Exposure
    WindExposed,                  !- Wind Exposure
    AutoCalculate,           !- View Factor to Ground
    4,                       !- Number of Vertices
    0.0000,0.0000,7.9248,  !- X,Y,Z ==> Vertex 1
    28.5114,0.0000,7.9248,  !- X,Y,Z ==> Vertex 2
    28.5114,0.0000,3.9624,  !- X,Y,Z ==> Vertex 3
    0.0000,0.0000,3.9624;  !- X,Y,Z ==> Vertex 4


  FenestrationSurface:Detailed,
    Floor_2_AHU1_Wall_S_Win,                  !- Name
    Window,                  !- Surface Type
    Exterior Window,         !- Construction Name
    Floor_2_AHU1_Wall_S,             !- Building Surface Name
    ,                        !- Outside Boundary Condition Object
    AutoCalculate,           !- View Factor to Ground
    ,                        !- Frame and Divider Name
    1.0,                     !- Multiplier
    4,                       !- Number of Vertices
    1.8279,0.0000,7.6708,  !- X,Y,Z ==> Vertex 1
    26.6836,0.0000,7.6708,  !- X,Y,Z ==> Vertex 2
    26.6836,0.0000,4.2164,  !- X,Y,Z ==> Vertex 3
    1.8279,0.0000,4.2164;  !- X,Y,Z ==> Vertex 4


  BuildingSurface:Detailed,
    Floor_2_AHU1_Wall_N,                  !- Name
    Wall,                 !- Surface Type
    Ext Wall,                !- Construction Name
    Floor_2_AHU1,                  !- Zone Name
    ,                        !- Space Name
    Outdoors,                   !- Outside Boundary Condition
    ,                        !- Outside Boundary Condition Object
    SunExposed,                   !- Sun Exposure
    WindExposed,                  !- Wind Exposure
    AutoCalculate,           !- View Factor to Ground
    4,                       !- Number of Vertices
    28.5114,38.0152,7.9248,  !- X,Y,Z ==> Vertex 1
    0.0000,38.0152,7.9248,  !- X,Y,Z ==> Vertex 2
    0.0000,38.0152,3.9624,  !- X,Y,Z ==> Vertex 3
    28.5114,38.0152,3.9624;  !- X,Y,Z ==> Vertex 4


  FenestrationSurface:Detailed,
    Floor_2_AHU1_Wall_N_Win,                  !- Name
    Window,                  !- Surface Type
    Exterior Window,         !- Construction Name
    Floor_2_AHU1_Wall_N,             !- Building Surface Name
    ,                        !- Outside Boundary Condition Object
    AutoCalculate,           !- View Factor to Ground
    ,                        !- Frame and Divider Name
    1.0,                     !- Multiplier
    4,                       !- Number of Vertices
    26.6836,38.0152,7.6708,  !- X,Y,Z ==> Vertex 1
    1.8279,38.0152,7.6708,  !- X,Y,Z ==> Vertex 2
    1.8279,38.0152,4.2164,  !- X,Y,Z ==> Vertex 3
    26.6836,38.0152,4.2164;  !- X,Y,Z ==> Vertex 4


  BuildingSurface:Detailed,
    Floor_2_AHU1_Wall_W,                  !- Name
    Wall,                 !- Surface Type
    Ext Wall,                !- Construction Name
    Floor_2_AHU1,                  !- Zone Name
    ,                        !- Space Name
    Outdoors,                   !- Outside Boundary Condition
    ,                        !- Outside Boundary Condition Object
    SunExposed,                   !- Sun Exposure
    WindExposed,                  !- Wind Exposure
    AutoCalculate,           !- View Factor to Ground
    4,                       !- Number of Vertices
    0.0000,38.0152,7.9248,  !- X,Y,Z ==> Vertex 1
    0.0000,0.0000,7.9248,  !- X,Y,Z ==> Vertex 2
    0.0000,0.0000,3.9624,  !- X,Y,Z ==> Vertex 3
    0.0000,38.0152,3.9624;  !- X,Y,Z ==> Vertex 4


  FenestrationSurface:Detailed,
    Floor_2_AHU1_Wall_W_Win,                  !- Name
    Window,                  !- Surface Type
    Exterior Window,         !- Construction Name
    Floor_2_AHU1_Wall_W,             !- Building Surface Name
    ,                        !- Outside Boundary Condition Object
    AutoCalculate,           !- View Factor to Ground
    ,                        !- Frame and Divider Name
    1.0,                     !- Multiplier
    4,                       !- Number of Vertices
    0.0000,35.5781,7.6708,  !- X,Y,Z ==> Vertex 1
    0.0000,2.4372,7.6708,  !- X,Y,Z ==> Vertex 2
    0.0000,2.4372,4.2164,  !- X,Y,Z ==> Vertex 3
    0.0000,35.5781,4.2164;  !- X,Y,Z ==> Vertex 4


  People, Floor_2_AHU1_People, Floor_2_AHU1, BLDG_OCC_SCH, People/Area, , 0.053821, , 0.3, , Activity level;
  Lights, Floor_2_AHU1_Lights, Floor_2_AHU1, BLDG_LIGHT_SCH, Watts/Area, , 10.5, , 0.2, 0.2, 0.2, 1, General;
  ElectricEquipment, Floor_2_AHU1_Equip, Floor_2_AHU1, BLDG_EQUIP_SCH, Watts/Area, , 8.0, , 0, 0.5, 0, General;
  ZoneInfiltration:DesignFlowRate, Floor_2_AHU1_Infil, Floor_2_AHU1, BLDG_INFIL_SCH, AirChanges/Hour, , , , 1.0, 1, 0, 0, 0;


  Zone,
    Floor_2_AHU2, 0, 0, 0, 0, 1, 1, autocalculate, autocalculate, autocalculate, , , Yes;


  BuildingSurface:Detailed,
    Floor_2_AHU2_Floor,                  !- Name
    Floor,                 !- Surface Type
    Int Floor,                !- Construction Name
    Floor_2_AHU2,                  !- Zone Name
    ,                        !- Space Name
    Surface,                   !- Outside Boundary Condition
    Floor_1_AHU2_Ceiling,                        !- Outside Boundary Condition Object
    NoSun,                   !- Sun Exposure
    NoWind,                  !- Wind Exposure
    AutoCalculate,           !- View Factor to Ground
    4,                       !- Number of Vertices
    28.5114,38.0152,3.9624,  !- X,Y,Z ==> Vertex 1
    28.5114,0.0000,3.9624,  !- X,Y,Z ==> Vertex 2
    57.0229,0.0000,3.9624,  !- X,Y,Z ==> Vertex 3
    57.0229,38.0152,3.9624;  !- X,Y,Z ==> Vertex 4


  BuildingSurface:Detailed,
    Floor_2_AHU2_Ceiling,                  !- Name
    Ceiling,                 !- Surface Type
    Int Floor,                !- Construction Name
    Floor_2_AHU2,                  !- Zone Name
    ,                        !- Space Name
    Surface,                   !- Outside Boundary Condition
    Floor_3_AHU2_Floor,                        !- Outside Boundary Condition Object
    NoSun,                   !- Sun Exposure
    NoWind,                  !- Wind Exposure
    AutoCalculate,           !- View Factor to Ground
    4,                       !- Number of Vertices
    28.5114,38.0152,7.9248,  !- X,Y,Z ==> Vertex 1
    57.0229,38.0152,7.9248,  !- X,Y,Z ==> Vertex 2
    57.0229,0.0000,7.9248,  !- X,Y,Z ==> Vertex 3
    28.5114,0.0000,7.9248;  !- X,Y,Z ==> Vertex 4


  BuildingSurface:Detailed,
    Floor_2_AHU2_Wall_S,                  !- Name
    Wall,                 !- Surface Type
    Ext Wall,                !- Construction Name
    Floor_2_AHU2,                  !- Zone Name
    ,                        !- Space Name
    Outdoors,                   !- Outside Boundary Condition
    ,                        !- Outside Boundary Condition Object
    SunExposed,                   !- Sun Exposure
    WindExposed,                  !- Wind Exposure
    AutoCalculate,           !- View Factor to Ground
    4,                       !- Number of Vertices
    28.5114,0.0000,7.9248,  !- X,Y,Z ==> Vertex 1
    57.0229,0.0000,7.9248,  !- X,Y,Z ==> Vertex 2
    57.0229,0.0000,3.9624,  !- X,Y,Z ==> Vertex 3
    28.5114,0.0000,3.9624;  !- X,Y,Z ==> Vertex 4


  FenestrationSurface:Detailed,
    Floor_2_AHU2_Wall_S_Win,                  !- Name
    Window,                  !- Surface Type
    Exterior Window,         !- Construction Name
    Floor_2_AHU2_Wall_S,             !- Building Surface Name
    ,                        !- Outside Boundary Condition Object
    AutoCalculate,           !- View Factor to Ground
    ,                        !- Frame and Divider Name
    1.0,                     !- Multiplier
    4,                       !- Number of Vertices
    30.3393,0.0000,7.6708,  !- X,Y,Z ==> Vertex 1
    55.1950,0.0000,7.6708,  !- X,Y,Z ==> Vertex 2
    55.1950,0.0000,4.2164,  !- X,Y,Z ==> Vertex 3
    30.3393,0.0000,4.2164;  !- X,Y,Z ==> Vertex 4


  BuildingSurface:Detailed,
    Floor_2_AHU2_Wall_N,                  !- Name
    Wall,                 !- Surface Type
    Ext Wall,                !- Construction Name
    Floor_2_AHU2,                  !- Zone Name
    ,                        !- Space Name
    Outdoors,                   !- Outside Boundary Condition
    ,                        !- Outside Boundary Condition Object
    SunExposed,                   !- Sun Exposure
    WindExposed,                  !- Wind Exposure
    AutoCalculate,           !- View Factor to Ground
    4,                       !- Number of Vertices
    57.0229,38.0152,7.9248,  !- X,Y,Z ==> Vertex 1
    28.5114,38.0152,7.9248,  !- X,Y,Z ==> Vertex 2
    28.5114,38.0152,3.9624,  !- X,Y,Z ==> Vertex 3
    57.0229,38.0152,3.9624;  !- X,Y,Z ==> Vertex 4


  FenestrationSurface:Detailed,
    Floor_2_AHU2_Wall_N_Win,                  !- Name
    Window,                  !- Surface Type
    Exterior Window,         !- Construction Name
    Floor_2_AHU2_Wall_N,             !- Building Surface Name
    ,                        !- Outside Boundary Condition Object
    AutoCalculate,           !- View Factor to Ground
    ,                        !- Frame and Divider Name
    1.0,                     !- Multiplier
    4,                       !- Number of Vertices
    55.1950,38.0152,7.6708,  !- X,Y,Z ==> Vertex 1
    30.3393,38.0152,7.6708,  !- X,Y,Z ==> Vertex 2
    30.3393,38.0152,4.2164,  !- X,Y,Z ==> Vertex 3
    55.1950,38.0152,4.2164;  !- X,Y,Z ==> Vertex 4


  BuildingSurface:Detailed,
    Floor_2_AHU2_Wall_E,                  !- Name
    Wall,                 !- Surface Type
    Ext Wall,                !- Construction Name
    Floor_2_AHU2,                  !- Zone Name
    ,                        !- Space Name
    Outdoors,                   !- Outside Boundary Condition
    ,                        !- Outside Boundary Condition Object
    SunExposed,                   !- Sun Exposure
    WindExposed,                  !- Wind Exposure
    AutoCalculate,           !- View Factor to Ground
    4,                       !- Number of Vertices
    57.0229,0.0000,7.9248,  !- X,Y,Z ==> Vertex 1
    57.0229,38.0152,7.9248,  !- X,Y,Z ==> Vertex 2
    57.0229,38.0152,3.9624,  !- X,Y,Z ==> Vertex 3
    57.0229,0.0000,3.9624;  !- X,Y,Z ==> Vertex 4


  FenestrationSurface:Detailed,
    Floor_2_AHU2_Wall_E_Win,                  !- Name
    Window,                  !- Surface Type
    Exterior Window,         !- Construction Name
    Floor_2_AHU2_Wall_E,             !- Building Surface Name
    ,                        !- Outside Boundary Condition Object
    AutoCalculate,           !- View Factor to Ground
    ,                        !- Frame and Divider Name
    1.0,                     !- Multiplier
    4,                       !- Number of Vertices
    57.0229,2.4372,7.6708,  !- X,Y,Z ==> Vertex 1
    57.0229,35.5781,7.6708,  !- X,Y,Z ==> Vertex 2
    57.0229,35.5781,4.2164,  !- X,Y,Z ==> Vertex 3
    57.0229,2.4372,4.2164;  !- X,Y,Z ==> Vertex 4


  People, Floor_2_AHU2_People, Floor_2_AHU2, BLDG_OCC_SCH, People/Area, , 0.053821, , 0.3, , Activity level;
  Lights, Floor_2_AHU2_Lights, Floor_2_AHU2, BLDG_LIGHT_SCH, Watts/Area, , 10.5, , 0.2, 0.2, 0.2, 1, General;
  ElectricEquipment, Floor_2_AHU2_Equip, Floor_2_AHU2, BLDG_EQUIP_SCH, Watts/Area, , 8.0, , 0, 0.5, 0, General;
  ZoneInfiltration:DesignFlowRate, Floor_2_AHU2_Infil, Floor_2_AHU2, BLDG_INFIL_SCH, AirChanges/Hour, , , , 1.0, 1, 0, 0, 0;


  BuildingSurface:Detailed,
    Floor_2_AHU1_Partition_E,                  !- Name
    Wall,                 !- Surface Type
    Int Partition,                !- Construction Name
    Floor_2_AHU1,                  !- Zone Name
    ,                        !- Space Name
    Surface,                   !- Outside Boundary Condition
    Floor_2_AHU2_Partition_W,                        !- Outside Boundary Condition Object
    NoSun,                   !- Sun Exposure
    NoWind,                  !- Wind Exposure
    AutoCalculate,           !- View Factor to Ground
    4,                       !- Number of Vertices
    28.5114,0.0000,7.9248,  !- X,Y,Z ==> Vertex 1
    28.5114,38.0152,7.9248,  !- X,Y,Z ==> Vertex 2
    28.5114,38.0152,3.9624,  !- X,Y,Z ==> Vertex 3
    28.5114,0.0000,3.9624;  !- X,Y,Z ==> Vertex 4


  BuildingSurface:Detailed,
    Floor_2_AHU2_Partition_W,                  !- Name
    Wall,                 !- Surface Type
    Int Partition,                !- Construction Name
    Floor_2_AHU2,                  !- Zone Name
    ,                        !- Space Name
    Surface,                   !- Outside Boundary Condition
    Floor_2_AHU1_Partition_E,                        !- Outside Boundary Condition Object
    NoSun,                   !- Sun Exposure
    NoWind,                  !- Wind Exposure
    AutoCalculate,           !- View Factor to Ground
    4,                       !- Number of Vertices
    28.5114,38.0152,7.9248,  !- X,Y,Z ==> Vertex 1
    28.5114,0.0000,7.9248,  !- X,Y,Z ==> Vertex 2
    28.5114,0.0000,3.9624,  !- X,Y,Z ==> Vertex 3
    28.5114,38.0152,3.9624;  !- X,Y,Z ==> Vertex 4


  Zone,
    Floor_3_AHU1, 0, 0, 0, 0, 1, 1, autocalculate, autocalculate, autocalculate, , , Yes;


  BuildingSurface:Detailed,
    Floor_3_AHU1_Floor,                  !- Name
    Floor,                 !- Surface Type
    Int Floor,                !- Construction Name
    Floor_3_AHU1,                  !- Zone Name
    ,                        !- Space Name
    Surface,                   !- Outside Boundary Condition
    Floor_2_AHU1_Ceiling,                        !- Outside Boundary Condition Object
    NoSun,                   !- Sun Exposure
    NoWind,                  !- Wind Exposure
    AutoCalculate,           !- View Factor to Ground
    4,                       !- Number of Vertices
    0.0000,38.0152,7.9248,  !- X,Y,Z ==> Vertex 1
    0.0000,0.0000,7.9248,  !- X,Y,Z ==> Vertex 2
    28.5114,0.0000,7.9248,  !- X,Y,Z ==> Vertex 3
    28.5114,38.0152,7.9248;  !- X,Y,Z ==> Vertex 4


  BuildingSurface:Detailed,
    Floor_3_AHU1_Ceiling,                  !- Name
    Ceiling,                 !- Surface Type
    Int Floor,                !- Construction Name
    Floor_3_AHU1,                  !- Zone Name
    ,                        !- Space Name
    Surface,                   !- Outside Boundary Condition
    Floor_4_AHU1_Floor,                        !- Outside Boundary Condition Object
    NoSun,                   !- Sun Exposure
    NoWind,                  !- Wind Exposure
    AutoCalculate,           !- View Factor to Ground
    4,                       !- Number of Vertices
    0.0000,38.0152,11.8872,  !- X,Y,Z ==> Vertex 1
    28.5114,38.0152,11.8872,  !- X,Y,Z ==> Vertex 2
    28.5114,0.0000,11.8872,  !- X,Y,Z ==> Vertex 3
    0.0000,0.0000,11.8872;  !- X,Y,Z ==> Vertex 4


  BuildingSurface:Detailed,
    Floor_3_AHU1_Wall_S,                  !- Name
    Wall,                 !- Surface Type
    Ext Wall,                !- Construction Name
    Floor_3_AHU1,                  !- Zone Name
    ,                        !- Space Name
    Outdoors,                   !- Outside Boundary Condition
    ,                        !- Outside Boundary Condition Object
    SunExposed,                   !- Sun Exposure
    WindExposed,                  !- Wind Exposure
    AutoCalculate,           !- View Factor to Ground
    4,                       !- Number of Vertices
    0.0000,0.0000,11.8872,  !- X,Y,Z ==> Vertex 1
    28.5114,0.0000,11.8872,  !- X,Y,Z ==> Vertex 2
    28.5114,0.0000,7.9248,  !- X,Y,Z ==> Vertex 3
    0.0000,0.0000,7.9248;  !- X,Y,Z ==> Vertex 4


  FenestrationSurface:Detailed,
    Floor_3_AHU1_Wall_S_Win,                  !- Name
    Window,                  !- Surface Type
    Exterior Window,         !- Construction Name
    Floor_3_AHU1_Wall_S,             !- Building Surface Name
    ,                        !- Outside Boundary Condition Object
    AutoCalculate,           !- View Factor to Ground
    ,                        !- Frame and Divider Name
    1.0,                     !- Multiplier
    4,                       !- Number of Vertices
    1.8279,0.0000,11.6332,  !- X,Y,Z ==> Vertex 1
    26.6836,0.0000,11.6332,  !- X,Y,Z ==> Vertex 2
    26.6836,0.0000,8.1788,  !- X,Y,Z ==> Vertex 3
    1.8279,0.0000,8.1788;  !- X,Y,Z ==> Vertex 4


  BuildingSurface:Detailed,
    Floor_3_AHU1_Wall_N,                  !- Name
    Wall,                 !- Surface Type
    Ext Wall,                !- Construction Name
    Floor_3_AHU1,                  !- Zone Name
    ,                        !- Space Name
    Outdoors,                   !- Outside Boundary Condition
    ,                        !- Outside Boundary Condition Object
    SunExposed,                   !- Sun Exposure
    WindExposed,                  !- Wind Exposure
    AutoCalculate,           !- View Factor to Ground
    4,                       !- Number of Vertices
    28.5114,38.0152,11.8872,  !- X,Y,Z ==> Vertex 1
    0.0000,38.0152,11.8872,  !- X,Y,Z ==> Vertex 2
    0.0000,38.0152,7.9248,  !- X,Y,Z ==> Vertex 3
    28.5114,38.0152,7.9248;  !- X,Y,Z ==> Vertex 4


  FenestrationSurface:Detailed,
    Floor_3_AHU1_Wall_N_Win,                  !- Name
    Window,                  !- Surface Type
    Exterior Window,         !- Construction Name
    Floor_3_AHU1_Wall_N,             !- Building Surface Name
    ,                        !- Outside Boundary Condition Object
    AutoCalculate,           !- View Factor to Ground
    ,                        !- Frame and Divider Name
    1.0,                     !- Multiplier
    4,                       !- Number of Vertices
    26.6836,38.0152,11.6332,  !- X,Y,Z ==> Vertex 1
    1.8279,38.0152,11.6332,  !- X,Y,Z ==> Vertex 2
    1.8279,38.0152,8.1788,  !- X,Y,Z ==> Vertex 3
    26.6836,38.0152,8.1788;  !- X,Y,Z ==> Vertex 4


  BuildingSurface:Detailed,
    Floor_3_AHU1_Wall_W,                  !- Name
    Wall,                 !- Surface Type
    Ext Wall,                !- Construction Name
    Floor_3_AHU1,                  !- Zone Name
    ,                        !- Space Name
    Outdoors,                   !- Outside Boundary Condition
    ,                        !- Outside Boundary Condition Object
    SunExposed,                   !- Sun Exposure
    WindExposed,                  !- Wind Exposure
    AutoCalculate,           !- View Factor to Ground
    4,                       !- Number of Vertices
    0.0000,38.0152,11.8872,  !- X,Y,Z ==> Vertex 1
    0.0000,0.0000,11.8872,  !- X,Y,Z ==> Vertex 2
    0.0000,0.0000,7.9248,  !- X,Y,Z ==> Vertex 3
    0.0000,38.0152,7.9248;  !- X,Y,Z ==> Vertex 4


  FenestrationSurface:Detailed,
    Floor_3_AHU1_Wall_W_Win,                  !- Name
    Window,                  !- Surface Type
    Exterior Window,         !- Construction Name
    Floor_3_AHU1_Wall_W,             !- Building Surface Name
    ,                        !- Outside Boundary Condition Object
    AutoCalculate,           !- View Factor to Ground
    ,                        !- Frame and Divider Name
    1.0,                     !- Multiplier
    4,                       !- Number of Vertices
    0.0000,35.5781,11.6332,  !- X,Y,Z ==> Vertex 1
    0.0000,2.4372,11.6332,  !- X,Y,Z ==> Vertex 2
    0.0000,2.4372,8.1788,  !- X,Y,Z ==> Vertex 3
    0.0000,35.5781,8.1788;  !- X,Y,Z ==> Vertex 4


  People, Floor_3_AHU1_People, Floor_3_AHU1, BLDG_OCC_SCH, People/Area, , 0.053821, , 0.3, , Activity level;
  Lights, Floor_3_AHU1_Lights, Floor_3_AHU1, BLDG_LIGHT_SCH, Watts/Area, , 10.5, , 0.2, 0.2, 0.2, 1, General;
  ElectricEquipment, Floor_3_AHU1_Equip, Floor_3_AHU1, BLDG_EQUIP_SCH, Watts/Area, , 8.0, , 0, 0.5, 0, General;
  ZoneInfiltration:DesignFlowRate, Floor_3_AHU1_Infil, Floor_3_AHU1, BLDG_INFIL_SCH, AirChanges/Hour, , , , 1.0, 1, 0, 0, 0;


  Zone,
    Floor_3_AHU2, 0, 0, 0, 0, 1, 1, autocalculate, autocalculate, autocalculate, , , Yes;


  BuildingSurface:Detailed,
    Floor_3_AHU2_Floor,                  !- Name
    Floor,                 !- Surface Type
    Int Floor,                !- Construction Name
    Floor_3_AHU2,                  !- Zone Name
    ,                        !- Space Name
    Surface,                   !- Outside Boundary Condition
    Floor_2_AHU2_Ceiling,                        !- Outside Boundary Condition Object
    NoSun,                   !- Sun Exposure
    NoWind,                  !- Wind Exposure
    AutoCalculate,           !- View Factor to Ground
    4,                       !- Number of Vertices
    28.5114,38.0152,7.9248,  !- X,Y,Z ==> Vertex 1
    28.5114,0.0000,7.9248,  !- X,Y,Z ==> Vertex 2
    57.0229,0.0000,7.9248,  !- X,Y,Z ==> Vertex 3
    57.0229,38.0152,7.9248;  !- X,Y,Z ==> Vertex 4


  BuildingSurface:Detailed,
    Floor_3_AHU2_Ceiling,                  !- Name
    Ceiling,                 !- Surface Type
    Int Floor,                !- Construction Name
    Floor_3_AHU2,                  !- Zone Name
    ,                        !- Space Name
    Surface,                   !- Outside Boundary Condition
    Floor_4_AHU2_Floor,                        !- Outside Boundary Condition Object
    NoSun,                   !- Sun Exposure
    NoWind,                  !- Wind Exposure
    AutoCalculate,           !- View Factor to Ground
    4,                       !- Number of Vertices
    28.5114,38.0152,11.8872,  !- X,Y,Z ==> Vertex 1
    57.0229,38.0152,11.8872,  !- X,Y,Z ==> Vertex 2
    57.0229,0.0000,11.8872,  !- X,Y,Z ==> Vertex 3
    28.5114,0.0000,11.8872;  !- X,Y,Z ==> Vertex 4


  BuildingSurface:Detailed,
    Floor_3_AHU2_Wall_S,                  !- Name
    Wall,                 !- Surface Type
    Ext Wall,                !- Construction Name
    Floor_3_AHU2,                  !- Zone Name
    ,                        !- Space Name
    Outdoors,                   !- Outside Boundary Condition
    ,                        !- Outside Boundary Condition Object
    SunExposed,                   !- Sun Exposure
    WindExposed,                  !- Wind Exposure
    AutoCalculate,           !- View Factor to Ground
    4,                       !- Number of Vertices
    28.5114,0.0000,11.8872,  !- X,Y,Z ==> Vertex 1
    57.0229,0.0000,11.8872,  !- X,Y,Z ==> Vertex 2
    57.0229,0.0000,7.9248,  !- X,Y,Z ==> Vertex 3
    28.5114,0.0000,7.9248;  !- X,Y,Z ==> Vertex 4


  FenestrationSurface:Detailed,
    Floor_3_AHU2_Wall_S_Win,                  !- Name
    Window,                  !- Surface Type
    Exterior Window,         !- Construction Name
    Floor_3_AHU2_Wall_S,             !- Building Surface Name
    ,                        !- Outside Boundary Condition Object
    AutoCalculate,           !- View Factor to Ground
    ,                        !- Frame and Divider Name
    1.0,                     !- Multiplier
    4,                       !- Number of Vertices
    30.3393,0.0000,11.6332,  !- X,Y,Z ==> Vertex 1
    55.1950,0.0000,11.6332,  !- X,Y,Z ==> Vertex 2
    55.1950,0.0000,8.1788,  !- X,Y,Z ==> Vertex 3
    30.3393,0.0000,8.1788;  !- X,Y,Z ==> Vertex 4


  BuildingSurface:Detailed,
    Floor_3_AHU2_Wall_N,                  !- Name
    Wall,                 !- Surface Type
    Ext Wall,                !- Construction Name
    Floor_3_AHU2,                  !- Zone Name
    ,                        !- Space Name
    Outdoors,                   !- Outside Boundary Condition
    ,                        !- Outside Boundary Condition Object
    SunExposed,                   !- Sun Exposure
    WindExposed,                  !- Wind Exposure
    AutoCalculate,           !- View Factor to Ground
    4,                       !- Number of Vertices
    57.0229,38.0152,11.8872,  !- X,Y,Z ==> Vertex 1
    28.5114,38.0152,11.8872,  !- X,Y,Z ==> Vertex 2
    28.5114,38.0152,7.9248,  !- X,Y,Z ==> Vertex 3
    57.0229,38.0152,7.9248;  !- X,Y,Z ==> Vertex 4


  FenestrationSurface:Detailed,
    Floor_3_AHU2_Wall_N_Win,                  !- Name
    Window,                  !- Surface Type
    Exterior Window,         !- Construction Name
    Floor_3_AHU2_Wall_N,             !- Building Surface Name
    ,                        !- Outside Boundary Condition Object
    AutoCalculate,           !- View Factor to Ground
    ,                        !- Frame and Divider Name
    1.0,                     !- Multiplier
    4,                       !- Number of Vertices
    55.1950,38.0152,11.6332,  !- X,Y,Z ==> Vertex 1
    30.3393,38.0152,11.6332,  !- X,Y,Z ==> Vertex 2
    30.3393,38.0152,8.1788,  !- X,Y,Z ==> Vertex 3
    55.1950,38.0152,8.1788;  !- X,Y,Z ==> Vertex 4


  BuildingSurface:Detailed,
    Floor_3_AHU2_Wall_E,                  !- Name
    Wall,                 !- Surface Type
    Ext Wall,                !- Construction Name
    Floor_3_AHU2,                  !- Zone Name
    ,                        !- Space Name
    Outdoors,                   !- Outside Boundary Condition
    ,                        !- Outside Boundary Condition Object
    SunExposed,                   !- Sun Exposure
    WindExposed,                  !- Wind Exposure
    AutoCalculate,           !- View Factor to Ground
    4,                       !- Number of Vertices
    57.0229,0.0000,11.8872,  !- X,Y,Z ==> Vertex 1
    57.0229,38.0152,11.8872,  !- X,Y,Z ==> Vertex 2
    57.0229,38.0152,7.9248,  !- X,Y,Z ==> Vertex 3
    57.0229,0.0000,7.9248;  !- X,Y,Z ==> Vertex 4


  FenestrationSurface:Detailed,
    Floor_3_AHU2_Wall_E_Win,                  !- Name
    Window,                  !- Surface Type
    Exterior Window,         !- Construction Name
    Floor_3_AHU2_Wall_E,             !- Building Surface Name
    ,                        !- Outside Boundary Condition Object
    AutoCalculate,           !- View Factor to Ground
    ,                        !- Frame and Divider Name
    1.0,                     !- Multiplier
    4,                       !- Number of Vertices
    57.0229,2.4372,11.6332,  !- X,Y,Z ==> Vertex 1
    57.0229,35.5781,11.6332,  !- X,Y,Z ==> Vertex 2
    57.0229,35.5781,8.1788,  !- X,Y,Z ==> Vertex 3
    57.0229,2.4372,8.1788;  !- X,Y,Z ==> Vertex 4


  People, Floor_3_AHU2_People, Floor_3_AHU2, BLDG_OCC_SCH, People/Area, , 0.053821, , 0.3, , Activity level;
  Lights, Floor_3_AHU2_Lights, Floor_3_AHU2, BLDG_LIGHT_SCH, Watts/Area, , 10.5, , 0.2, 0.2, 0.2, 1, General;
  ElectricEquipment, Floor_3_AHU2_Equip, Floor_3_AHU2, BLDG_EQUIP_SCH, Watts/Area, , 8.0, , 0, 0.5, 0, General;
  ZoneInfiltration:DesignFlowRate, Floor_3_AHU2_Infil, Floor_3_AHU2, BLDG_INFIL_SCH, AirChanges/Hour, , , , 1.0, 1, 0, 0, 0;


  BuildingSurface:Detailed,
    Floor_3_AHU1_Partition_E,                  !- Name
    Wall,                 !- Surface Type
    Int Partition,                !- Construction Name
    Floor_3_AHU1,                  !- Zone Name
    ,                        !- Space Name
    Surface,                   !- Outside Boundary Condition
    Floor_3_AHU2_Partition_W,                        !- Outside Boundary Condition Object
    NoSun,                   !- Sun Exposure
    NoWind,                  !- Wind Exposure
    AutoCalculate,           !- View Factor to Ground
    4,                       !- Number of Vertices
    28.5114,0.0000,11.8872,  !- X,Y,Z ==> Vertex 1
    28.5114,38.0152,11.8872,  !- X,Y,Z ==> Vertex 2
    28.5114,38.0152,7.9248,  !- X,Y,Z ==> Vertex 3
    28.5114,0.0000,7.9248;  !- X,Y,Z ==> Vertex 4


  BuildingSurface:Detailed,
    Floor_3_AHU2_Partition_W,                  !- Name
    Wall,                 !- Surface Type
    Int Partition,                !- Construction Name
    Floor_3_AHU2,                  !- Zone Name
    ,                        !- Space Name
    Surface,                   !- Outside Boundary Condition
    Floor_3_AHU1_Partition_E,                        !- Outside Boundary Condition Object
    NoSun,                   !- Sun Exposure
    NoWind,                  !- Wind Exposure
    AutoCalculate,           !- View Factor to Ground
    4,                       !- Number of Vertices
    28.5114,38.0152,11.8872,  !- X,Y,Z ==> Vertex 1
    28.5114,0.0000,11.8872,  !- X,Y,Z ==> Vertex 2
    28.5114,0.0000,7.9248,  !- X,Y,Z ==> Vertex 3
    28.5114,38.0152,7.9248;  !- X,Y,Z ==> Vertex 4


  Zone,
    Floor_4_AHU1, 0, 0, 0, 0, 1, 1, autocalculate, autocalculate, autocalculate, , , Yes;


  BuildingSurface:Detailed,
    Floor_4_AHU1_Floor,                  !- Name
    Floor,                 !- Surface Type
    Int Floor,                !- Construction Name
    Floor_4_AHU1,                  !- Zone Name
    ,                        !- Space Name
    Surface,                   !- Outside Boundary Condition
    Floor_3_AHU1_Ceiling,                        !- Outside Boundary Condition Object
    NoSun,                   !- Sun Exposure
    NoWind,                  !- Wind Exposure
    AutoCalculate,           !- View Factor to Ground
    4,                       !- Number of Vertices
    0.0000,38.0152,11.8872,  !- X,Y,Z ==> Vertex 1
    0.0000,0.0000,11.8872,  !- X,Y,Z ==> Vertex 2
    28.5114,0.0000,11.8872,  !- X,Y,Z ==> Vertex 3
    28.5114,38.0152,11.8872;  !- X,Y,Z ==> Vertex 4


  BuildingSurface:Detailed,
    Floor_4_AHU1_Ceiling,                  !- Name
    Ceiling,                 !- Surface Type
    Int Floor,                !- Construction Name
    Floor_4_AHU1,                  !- Zone Name
    ,                        !- Space Name
    Surface,                   !- Outside Boundary Condition
    Floor_5_AHU1_Floor,                        !- Outside Boundary Condition Object
    NoSun,                   !- Sun Exposure
    NoWind,                  !- Wind Exposure
    AutoCalculate,           !- View Factor to Ground
    4,                       !- Number of Vertices
    0.0000,38.0152,15.8496,  !- X,Y,Z ==> Vertex 1
    28.5114,38.0152,15.8496,  !- X,Y,Z ==> Vertex 2
    28.5114,0.0000,15.8496,  !- X,Y,Z ==> Vertex 3
    0.0000,0.0000,15.8496;  !- X,Y,Z ==> Vertex 4


  BuildingSurface:Detailed,
    Floor_4_AHU1_Wall_S,                  !- Name
    Wall,                 !- Surface Type
    Ext Wall,                !- Construction Name
    Floor_4_AHU1,                  !- Zone Name
    ,                        !- Space Name
    Outdoors,                   !- Outside Boundary Condition
    ,                        !- Outside Boundary Condition Object
    SunExposed,                   !- Sun Exposure
    WindExposed,                  !- Wind Exposure
    AutoCalculate,           !- View Factor to Ground
    4,                       !- Number of Vertices
    0.0000,0.0000,15.8496,  !- X,Y,Z ==> Vertex 1
    28.5114,0.0000,15.8496,  !- X,Y,Z ==> Vertex 2
    28.5114,0.0000,11.8872,  !- X,Y,Z ==> Vertex 3
    0.0000,0.0000,11.8872;  !- X,Y,Z ==> Vertex 4


  FenestrationSurface:Detailed,
    Floor_4_AHU1_Wall_S_Win,                  !- Name
    Window,                  !- Surface Type
    Exterior Window,         !- Construction Name
    Floor_4_AHU1_Wall_S,             !- Building Surface Name
    ,                        !- Outside Boundary Condition Object
    AutoCalculate,           !- View Factor to Ground
    ,                        !- Frame and Divider Name
    1.0,                     !- Multiplier
    4,                       !- Number of Vertices
    1.8279,0.0000,15.5956,  !- X,Y,Z ==> Vertex 1
    26.6836,0.0000,15.5956,  !- X,Y,Z ==> Vertex 2
    26.6836,0.0000,12.1412,  !- X,Y,Z ==> Vertex 3
    1.8279,0.0000,12.1412;  !- X,Y,Z ==> Vertex 4


  BuildingSurface:Detailed,
    Floor_4_AHU1_Wall_N,                  !- Name
    Wall,                 !- Surface Type
    Ext Wall,                !- Construction Name
    Floor_4_AHU1,                  !- Zone Name
    ,                        !- Space Name
    Outdoors,                   !- Outside Boundary Condition
    ,                        !- Outside Boundary Condition Object
    SunExposed,                   !- Sun Exposure
    WindExposed,                  !- Wind Exposure
    AutoCalculate,           !- View Factor to Ground
    4,                       !- Number of Vertices
    28.5114,38.0152,15.8496,  !- X,Y,Z ==> Vertex 1
    0.0000,38.0152,15.8496,  !- X,Y,Z ==> Vertex 2
    0.0000,38.0152,11.8872,  !- X,Y,Z ==> Vertex 3
    28.5114,38.0152,11.8872;  !- X,Y,Z ==> Vertex 4


  FenestrationSurface:Detailed,
    Floor_4_AHU1_Wall_N_Win,                  !- Name
    Window,                  !- Surface Type
    Exterior Window,         !- Construction Name
    Floor_4_AHU1_Wall_N,             !- Building Surface Name
    ,                        !- Outside Boundary Condition Object
    AutoCalculate,           !- View Factor to Ground
    ,                        !- Frame and Divider Name
    1.0,                     !- Multiplier
    4,                       !- Number of Vertices
    26.6836,38.0152,15.5956,  !- X,Y,Z ==> Vertex 1
    1.8279,38.0152,15.5956,  !- X,Y,Z ==> Vertex 2
    1.8279,38.0152,12.1412,  !- X,Y,Z ==> Vertex 3
    26.6836,38.0152,12.1412;  !- X,Y,Z ==> Vertex 4


  BuildingSurface:Detailed,
    Floor_4_AHU1_Wall_W,                  !- Name
    Wall,                 !- Surface Type
    Ext Wall,                !- Construction Name
    Floor_4_AHU1,                  !- Zone Name
    ,                        !- Space Name
    Outdoors,                   !- Outside Boundary Condition
    ,                        !- Outside Boundary Condition Object
    SunExposed,                   !- Sun Exposure
    WindExposed,                  !- Wind Exposure
    AutoCalculate,           !- View Factor to Ground
    4,                       !- Number of Vertices
    0.0000,38.0152,15.8496,  !- X,Y,Z ==> Vertex 1
    0.0000,0.0000,15.8496,  !- X,Y,Z ==> Vertex 2
    0.0000,0.0000,11.8872,  !- X,Y,Z ==> Vertex 3
    0.0000,38.0152,11.8872;  !- X,Y,Z ==> Vertex 4


  FenestrationSurface:Detailed,
    Floor_4_AHU1_Wall_W_Win,                  !- Name
    Window,                  !- Surface Type
    Exterior Window,         !- Construction Name
    Floor_4_AHU1_Wall_W,             !- Building Surface Name
    ,                        !- Outside Boundary Condition Object
    AutoCalculate,           !- View Factor to Ground
    ,                        !- Frame and Divider Name
    1.0,                     !- Multiplier
    4,                       !- Number of Vertices
    0.0000,35.5781,15.5956,  !- X,Y,Z ==> Vertex 1
    0.0000,2.4372,15.5956,  !- X,Y,Z ==> Vertex 2
    0.0000,2.4372,12.1412,  !- X,Y,Z ==> Vertex 3
    0.0000,35.5781,12.1412;  !- X,Y,Z ==> Vertex 4


  People, Floor_4_AHU1_People, Floor_4_AHU1, BLDG_OCC_SCH, People/Area, , 0.053821, , 0.3, , Activity level;
  Lights, Floor_4_AHU1_Lights, Floor_4_AHU1, BLDG_LIGHT_SCH, Watts/Area, , 10.5, , 0.2, 0.2, 0.2, 1, General;
  ElectricEquipment, Floor_4_AHU1_Equip, Floor_4_AHU1, BLDG_EQUIP_SCH, Watts/Area, , 8.0, , 0, 0.5, 0, General;
  ZoneInfiltration:DesignFlowRate, Floor_4_AHU1_Infil, Floor_4_AHU1, BLDG_INFIL_SCH, AirChanges/Hour, , , , 1.0, 1, 0, 0, 0;


  Zone,
    Floor_4_AHU2, 0, 0, 0, 0, 1, 1, autocalculate, autocalculate, autocalculate, , , Yes;


  BuildingSurface:Detailed,
    Floor_4_AHU2_Floor,                  !- Name
    Floor,                 !- Surface Type
    Int Floor,                !- Construction Name
    Floor_4_AHU2,                  !- Zone Name
    ,                        !- Space Name
    Surface,                   !- Outside Boundary Condition
    Floor_3_AHU2_Ceiling,                        !- Outside Boundary Condition Object
    NoSun,                   !- Sun Exposure
    NoWind,                  !- Wind Exposure
    AutoCalculate,           !- View Factor to Ground
    4,                       !- Number of Vertices
    28.5114,38.0152,11.8872,  !- X,Y,Z ==> Vertex 1
    28.5114,0.0000,11.8872,  !- X,Y,Z ==> Vertex 2
    57.0229,0.0000,11.8872,  !- X,Y,Z ==> Vertex 3
    57.0229,38.0152,11.8872;  !- X,Y,Z ==> Vertex 4


  BuildingSurface:Detailed,
    Floor_4_AHU2_Ceiling,                  !- Name
    Ceiling,                 !- Surface Type
    Int Floor,                !- Construction Name
    Floor_4_AHU2,                  !- Zone Name
    ,                        !- Space Name
    Surface,                   !- Outside Boundary Condition
    Floor_5_AHU2_Floor,                        !- Outside Boundary Condition Object
    NoSun,                   !- Sun Exposure
    NoWind,                  !- Wind Exposure
    AutoCalculate,           !- View Factor to Ground
    4,                       !- Number of Vertices
    28.5114,38.0152,15.8496,  !- X,Y,Z ==> Vertex 1
    57.0229,38.0152,15.8496,  !- X,Y,Z ==> Vertex 2
    57.0229,0.0000,15.8496,  !- X,Y,Z ==> Vertex 3
    28.5114,0.0000,15.8496;  !- X,Y,Z ==> Vertex 4


  BuildingSurface:Detailed,
    Floor_4_AHU2_Wall_S,                  !- Name
    Wall,                 !- Surface Type
    Ext Wall,                !- Construction Name
    Floor_4_AHU2,                  !- Zone Name
    ,                        !- Space Name
    Outdoors,                   !- Outside Boundary Condition
    ,                        !- Outside Boundary Condition Object
    SunExposed,                   !- Sun Exposure
    WindExposed,                  !- Wind Exposure
    AutoCalculate,           !- View Factor to Ground
    4,                       !- Number of Vertices
    28.5114,0.0000,15.8496,  !- X,Y,Z ==> Vertex 1
    57.0229,0.0000,15.8496,  !- X,Y,Z ==> Vertex 2
    57.0229,0.0000,11.8872,  !- X,Y,Z ==> Vertex 3
    28.5114,0.0000,11.8872;  !- X,Y,Z ==> Vertex 4


  FenestrationSurface:Detailed,
    Floor_4_AHU2_Wall_S_Win,                  !- Name
    Window,                  !- Surface Type
    Exterior Window,         !- Construction Name
    Floor_4_AHU2_Wall_S,             !- Building Surface Name
    ,                        !- Outside Boundary Condition Object
    AutoCalculate,           !- View Factor to Ground
    ,                        !- Frame and Divider Name
    1.0,                     !- Multiplier
    4,                       !- Number of Vertices
    30.3393,0.0000,15.5956,  !- X,Y,Z ==> Vertex 1
    55.1950,0.0000,15.5956,  !- X,Y,Z ==> Vertex 2
    55.1950,0.0000,12.1412,  !- X,Y,Z ==> Vertex 3
    30.3393,0.0000,12.1412;  !- X,Y,Z ==> Vertex 4


  BuildingSurface:Detailed,
    Floor_4_AHU2_Wall_N,                  !- Name
    Wall,                 !- Surface Type
    Ext Wall,                !- Construction Name
    Floor_4_AHU2,                  !- Zone Name
    ,                        !- Space Name
    Outdoors,                   !- Outside Boundary Condition
    ,                        !- Outside Boundary Condition Object
    SunExposed,                   !- Sun Exposure
    WindExposed,                  !- Wind Exposure
    AutoCalculate,           !- View Factor to Ground
    4,                       !- Number of Vertices
    57.0229,38.0152,15.8496,  !- X,Y,Z ==> Vertex 1
    28.5114,38.0152,15.8496,  !- X,Y,Z ==> Vertex 2
    28.5114,38.0152,11.8872,  !- X,Y,Z ==> Vertex 3
    57.0229,38.0152,11.8872;  !- X,Y,Z ==> Vertex 4


  FenestrationSurface:Detailed,
    Floor_4_AHU2_Wall_N_Win,                  !- Name
    Window,                  !- Surface Type
    Exterior Window,         !- Construction Name
    Floor_4_AHU2_Wall_N,             !- Building Surface Name
    ,                        !- Outside Boundary Condition Object
    AutoCalculate,           !- View Factor to Ground
    ,                        !- Frame and Divider Name
    1.0,                     !- Multiplier
    4,                       !- Number of Vertices
    55.1950,38.0152,15.5956,  !- X,Y,Z ==> Vertex 1
    30.3393,38.0152,15.5956,  !- X,Y,Z ==> Vertex 2
    30.3393,38.0152,12.1412,  !- X,Y,Z ==> Vertex 3
    55.1950,38.0152,12.1412;  !- X,Y,Z ==> Vertex 4


  BuildingSurface:Detailed,
    Floor_4_AHU2_Wall_E,                  !- Name
    Wall,                 !- Surface Type
    Ext Wall,                !- Construction Name
    Floor_4_AHU2,                  !- Zone Name
    ,                        !- Space Name
    Outdoors,                   !- Outside Boundary Condition
    ,                        !- Outside Boundary Condition Object
    SunExposed,                   !- Sun Exposure
    WindExposed,                  !- Wind Exposure
    AutoCalculate,           !- View Factor to Ground
    4,                       !- Number of Vertices
    57.0229,0.0000,15.8496,  !- X,Y,Z ==> Vertex 1
    57.0229,38.0152,15.8496,  !- X,Y,Z ==> Vertex 2
    57.0229,38.0152,11.8872,  !- X,Y,Z ==> Vertex 3
    57.0229,0.0000,11.8872;  !- X,Y,Z ==> Vertex 4


  FenestrationSurface:Detailed,
    Floor_4_AHU2_Wall_E_Win,                  !- Name
    Window,                  !- Surface Type
    Exterior Window,         !- Construction Name
    Floor_4_AHU2_Wall_E,             !- Building Surface Name
    ,                        !- Outside Boundary Condition Object
    AutoCalculate,           !- View Factor to Ground
    ,                        !- Frame and Divider Name
    1.0,                     !- Multiplier
    4,                       !- Number of Vertices
    57.0229,2.4372,15.5956,  !- X,Y,Z ==> Vertex 1
    57.0229,35.5781,15.5956,  !- X,Y,Z ==> Vertex 2
    57.0229,35.5781,12.1412,  !- X,Y,Z ==> Vertex 3
    57.0229,2.4372,12.1412;  !- X,Y,Z ==> Vertex 4


  People, Floor_4_AHU2_People, Floor_4_AHU2, BLDG_OCC_SCH, People/Area, , 0.053821, , 0.3, , Activity level;
  Lights, Floor_4_AHU2_Lights, Floor_4_AHU2, BLDG_LIGHT_SCH, Watts/Area, , 10.5, , 0.2, 0.2, 0.2, 1, General;
  ElectricEquipment, Floor_4_AHU2_Equip, Floor_4_AHU2, BLDG_EQUIP_SCH, Watts/Area, , 8.0, , 0, 0.5, 0, General;
  ZoneInfiltration:DesignFlowRate, Floor_4_AHU2_Infil, Floor_4_AHU2, BLDG_INFIL_SCH, AirChanges/Hour, , , , 1.0, 1, 0, 0, 0;


  BuildingSurface:Detailed,
    Floor_4_AHU1_Partition_E,                  !- Name
    Wall,                 !- Surface Type
    Int Partition,                !- Construction Name
    Floor_4_AHU1,                  !- Zone Name
    ,                        !- Space Name
    Surface,                   !- Outside Boundary Condition
    Floor_4_AHU2_Partition_W,                        !- Outside Boundary Condition Object
    NoSun,                   !- Sun Exposure
    NoWind,                  !- Wind Exposure
    AutoCalculate,           !- View Factor to Ground
    4,                       !- Number of Vertices
    28.5114,0.0000,15.8496,  !- X,Y,Z ==> Vertex 1
    28.5114,38.0152,15.8496,  !- X,Y,Z ==> Vertex 2
    28.5114,38.0152,11.8872,  !- X,Y,Z ==> Vertex 3
    28.5114,0.0000,11.8872;  !- X,Y,Z ==> Vertex 4


  BuildingSurface:Detailed,
    Floor_4_AHU2_Partition_W,                  !- Name
    Wall,                 !- Surface Type
    Int Partition,                !- Construction Name
    Floor_4_AHU2,                  !- Zone Name
    ,                        !- Space Name
    Surface,                   !- Outside Boundary Condition
    Floor_4_AHU1_Partition_E,                        !- Outside Boundary Condition Object
    NoSun,                   !- Sun Exposure
    NoWind,                  !- Wind Exposure
    AutoCalculate,           !- View Factor to Ground
    4,                       !- Number of Vertices
    28.5114,38.0152,15.8496,  !- X,Y,Z ==> Vertex 1
    28.5114,0.0000,15.8496,  !- X,Y,Z ==> Vertex 2
    28.5114,0.0000,11.8872,  !- X,Y,Z ==> Vertex 3
    28.5114,38.0152,11.8872;  !- X,Y,Z ==> Vertex 4


  Zone,
    Floor_5_AHU1, 0, 0, 0, 0, 1, 1, autocalculate, autocalculate, autocalculate, , , Yes;


  BuildingSurface:Detailed,
    Floor_5_AHU1_Floor,                  !- Name
    Floor,                 !- Surface Type
    Int Floor,                !- Construction Name
    Floor_5_AHU1,                  !- Zone Name
    ,                        !- Space Name
    Surface,                   !- Outside Boundary Condition
    Floor_4_AHU1_Ceiling,                        !- Outside Boundary Condition Object
    NoSun,                   !- Sun Exposure
    NoWind,                  !- Wind Exposure
    AutoCalculate,           !- View Factor to Ground
    4,                       !- Number of Vertices
    0.0000,38.0152,15.8496,  !- X,Y,Z ==> Vertex 1
    0.0000,0.0000,15.8496,  !- X,Y,Z ==> Vertex 2
    28.5114,0.0000,15.8496,  !- X,Y,Z ==> Vertex 3
    28.5114,38.0152,15.8496;  !- X,Y,Z ==> Vertex 4


  BuildingSurface:Detailed,
    Floor_5_AHU1_Ceiling,                  !- Name
    Ceiling,                 !- Surface Type
    Int Floor,                !- Construction Name
    Floor_5_AHU1,                  !- Zone Name
    ,                        !- Space Name
    Surface,                   !- Outside Boundary Condition
    Floor_6_AHU1_Floor,                        !- Outside Boundary Condition Object
    NoSun,                   !- Sun Exposure
    NoWind,                  !- Wind Exposure
    AutoCalculate,           !- View Factor to Ground
    4,                       !- Number of Vertices
    0.0000,38.0152,19.8120,  !- X,Y,Z ==> Vertex 1
    28.5114,38.0152,19.8120,  !- X,Y,Z ==> Vertex 2
    28.5114,0.0000,19.8120,  !- X,Y,Z ==> Vertex 3
    0.0000,0.0000,19.8120;  !- X,Y,Z ==> Vertex 4


  BuildingSurface:Detailed,
    Floor_5_AHU1_Wall_S,                  !- Name
    Wall,                 !- Surface Type
    Ext Wall,                !- Construction Name
    Floor_5_AHU1,                  !- Zone Name
    ,                        !- Space Name
    Outdoors,                   !- Outside Boundary Condition
    ,                        !- Outside Boundary Condition Object
    SunExposed,                   !- Sun Exposure
    WindExposed,                  !- Wind Exposure
    AutoCalculate,           !- View Factor to Ground
    4,                       !- Number of Vertices
    0.0000,0.0000,19.8120,  !- X,Y,Z ==> Vertex 1
    28.5114,0.0000,19.8120,  !- X,Y,Z ==> Vertex 2
    28.5114,0.0000,15.8496,  !- X,Y,Z ==> Vertex 3
    0.0000,0.0000,15.8496;  !- X,Y,Z ==> Vertex 4


  FenestrationSurface:Detailed,
    Floor_5_AHU1_Wall_S_Win,                  !- Name
    Window,                  !- Surface Type
    Exterior Window,         !- Construction Name
    Floor_5_AHU1_Wall_S,             !- Building Surface Name
    ,                        !- Outside Boundary Condition Object
    AutoCalculate,           !- View Factor to Ground
    ,                        !- Frame and Divider Name
    1.0,                     !- Multiplier
    4,                       !- Number of Vertices
    1.8279,0.0000,19.5580,  !- X,Y,Z ==> Vertex 1
    26.6836,0.0000,19.5580,  !- X,Y,Z ==> Vertex 2
    26.6836,0.0000,16.1036,  !- X,Y,Z ==> Vertex 3
    1.8279,0.0000,16.1036;  !- X,Y,Z ==> Vertex 4


  BuildingSurface:Detailed,
    Floor_5_AHU1_Wall_N,                  !- Name
    Wall,                 !- Surface Type
    Ext Wall,                !- Construction Name
    Floor_5_AHU1,                  !- Zone Name
    ,                        !- Space Name
    Outdoors,                   !- Outside Boundary Condition
    ,                        !- Outside Boundary Condition Object
    SunExposed,                   !- Sun Exposure
    WindExposed,                  !- Wind Exposure
    AutoCalculate,           !- View Factor to Ground
    4,                       !- Number of Vertices
    28.5114,38.0152,19.8120,  !- X,Y,Z ==> Vertex 1
    0.0000,38.0152,19.8120,  !- X,Y,Z ==> Vertex 2
    0.0000,38.0152,15.8496,  !- X,Y,Z ==> Vertex 3
    28.5114,38.0152,15.8496;  !- X,Y,Z ==> Vertex 4


  FenestrationSurface:Detailed,
    Floor_5_AHU1_Wall_N_Win,                  !- Name
    Window,                  !- Surface Type
    Exterior Window,         !- Construction Name
    Floor_5_AHU1_Wall_N,             !- Building Surface Name
    ,                        !- Outside Boundary Condition Object
    AutoCalculate,           !- View Factor to Ground
    ,                        !- Frame and Divider Name
    1.0,                     !- Multiplier
    4,                       !- Number of Vertices
    26.6836,38.0152,19.5580,  !- X,Y,Z ==> Vertex 1
    1.8279,38.0152,19.5580,  !- X,Y,Z ==> Vertex 2
    1.8279,38.0152,16.1036,  !- X,Y,Z ==> Vertex 3
    26.6836,38.0152,16.1036;  !- X,Y,Z ==> Vertex 4


  BuildingSurface:Detailed,
    Floor_5_AHU1_Wall_W,                  !- Name
    Wall,                 !- Surface Type
    Ext Wall,                !- Construction Name
    Floor_5_AHU1,                  !- Zone Name
    ,                        !- Space Name
    Outdoors,                   !- Outside Boundary Condition
    ,                        !- Outside Boundary Condition Object
    SunExposed,                   !- Sun Exposure
    WindExposed,                  !- Wind Exposure
    AutoCalculate,           !- View Factor to Ground
    4,                       !- Number of Vertices
    0.0000,38.0152,19.8120,  !- X,Y,Z ==> Vertex 1
    0.0000,0.0000,19.8120,  !- X,Y,Z ==> Vertex 2
    0.0000,0.0000,15.8496,  !- X,Y,Z ==> Vertex 3
    0.0000,38.0152,15.8496;  !- X,Y,Z ==> Vertex 4


  FenestrationSurface:Detailed,
    Floor_5_AHU1_Wall_W_Win,                  !- Name
    Window,                  !- Surface Type
    Exterior Window,         !- Construction Name
    Floor_5_AHU1_Wall_W,             !- Building Surface Name
    ,                        !- Outside Boundary Condition Object
    AutoCalculate,           !- View Factor to Ground
    ,                        !- Frame and Divider Name
    1.0,                     !- Multiplier
    4,                       !- Number of Vertices
    0.0000,35.5781,19.5580,  !- X,Y,Z ==> Vertex 1
    0.0000,2.4372,19.5580,  !- X,Y,Z ==> Vertex 2
    0.0000,2.4372,16.1036,  !- X,Y,Z ==> Vertex 3
    0.0000,35.5781,16.1036;  !- X,Y,Z ==> Vertex 4


  People, Floor_5_AHU1_People, Floor_5_AHU1, BLDG_OCC_SCH, People/Area, , 0.053821, , 0.3, , Activity level;
  Lights, Floor_5_AHU1_Lights, Floor_5_AHU1, BLDG_LIGHT_SCH, Watts/Area, , 10.5, , 0.2, 0.2, 0.2, 1, General;
  ElectricEquipment, Floor_5_AHU1_Equip, Floor_5_AHU1, BLDG_EQUIP_SCH, Watts/Area, , 8.0, , 0, 0.5, 0, General;
  ZoneInfiltration:DesignFlowRate, Floor_5_AHU1_Infil, Floor_5_AHU1, BLDG_INFIL_SCH, AirChanges/Hour, , , , 1.0, 1, 0, 0, 0;


  Zone,
    Floor_5_AHU2, 0, 0, 0, 0, 1, 1, autocalculate, autocalculate, autocalculate, , , Yes;


  BuildingSurface:Detailed,
    Floor_5_AHU2_Floor,                  !- Name
    Floor,                 !- Surface Type
    Int Floor,                !- Construction Name
    Floor_5_AHU2,                  !- Zone Name
    ,                        !- Space Name
    Surface,                   !- Outside Boundary Condition
    Floor_4_AHU2_Ceiling,                        !- Outside Boundary Condition Object
    NoSun,                   !- Sun Exposure
    NoWind,                  !- Wind Exposure
    AutoCalculate,           !- View Factor to Ground
    4,                       !- Number of Vertices
    28.5114,38.0152,15.8496,  !- X,Y,Z ==> Vertex 1
    28.5114,0.0000,15.8496,  !- X,Y,Z ==> Vertex 2
    57.0229,0.0000,15.8496,  !- X,Y,Z ==> Vertex 3
    57.0229,38.0152,15.8496;  !- X,Y,Z ==> Vertex 4


  BuildingSurface:Detailed,
    Floor_5_AHU2_Ceiling,                  !- Name
    Ceiling,                 !- Surface Type
    Int Floor,                !- Construction Name
    Floor_5_AHU2,                  !- Zone Name
    ,                        !- Space Name
    Surface,                   !- Outside Boundary Condition
    Floor_6_AHU2_Floor,                        !- Outside Boundary Condition Object
    NoSun,                   !- Sun Exposure
    NoWind,                  !- Wind Exposure
    AutoCalculate,           !- View Factor to Ground
    4,                       !- Number of Vertices
    28.5114,38.0152,19.8120,  !- X,Y,Z ==> Vertex 1
    57.0229,38.0152,19.8120,  !- X,Y,Z ==> Vertex 2
    57.0229,0.0000,19.8120,  !- X,Y,Z ==> Vertex 3
    28.5114,0.0000,19.8120;  !- X,Y,Z ==> Vertex 4


  BuildingSurface:Detailed,
    Floor_5_AHU2_Wall_S,                  !- Name
    Wall,                 !- Surface Type
    Ext Wall,                !- Construction Name
    Floor_5_AHU2,                  !- Zone Name
    ,                        !- Space Name
    Outdoors,                   !- Outside Boundary Condition
    ,                        !- Outside Boundary Condition Object
    SunExposed,                   !- Sun Exposure
    WindExposed,                  !- Wind Exposure
    AutoCalculate,           !- View Factor to Ground
    4,                       !- Number of Vertices
    28.5114,0.0000,19.8120,  !- X,Y,Z ==> Vertex 1
    57.0229,0.0000,19.8120,  !- X,Y,Z ==> Vertex 2
    57.0229,0.0000,15.8496,  !- X,Y,Z ==> Vertex 3
    28.5114,0.0000,15.8496;  !- X,Y,Z ==> Vertex 4


  FenestrationSurface:Detailed,
    Floor_5_AHU2_Wall_S_Win,                  !- Name
    Window,                  !- Surface Type
    Exterior Window,         !- Construction Name
    Floor_5_AHU2_Wall_S,             !- Building Surface Name
    ,                        !- Outside Boundary Condition Object
    AutoCalculate,           !- View Factor to Ground
    ,                        !- Frame and Divider Name
    1.0,                     !- Multiplier
    4,                       !- Number of Vertices
    30.3393,0.0000,19.5580,  !- X,Y,Z ==> Vertex 1
    55.1950,0.0000,19.5580,  !- X,Y,Z ==> Vertex 2
    55.1950,0.0000,16.1036,  !- X,Y,Z ==> Vertex 3
    30.3393,0.0000,16.1036;  !- X,Y,Z ==> Vertex 4


  BuildingSurface:Detailed,
    Floor_5_AHU2_Wall_N,                  !- Name
    Wall,                 !- Surface Type
    Ext Wall,                !- Construction Name
    Floor_5_AHU2,                  !- Zone Name
    ,                        !- Space Name
    Outdoors,                   !- Outside Boundary Condition
    ,                        !- Outside Boundary Condition Object
    SunExposed,                   !- Sun Exposure
    WindExposed,                  !- Wind Exposure
    AutoCalculate,           !- View Factor to Ground
    4,                       !- Number of Vertices
    57.0229,38.0152,19.8120,  !- X,Y,Z ==> Vertex 1
    28.5114,38.0152,19.8120,  !- X,Y,Z ==> Vertex 2
    28.5114,38.0152,15.8496,  !- X,Y,Z ==> Vertex 3
    57.0229,38.0152,15.8496;  !- X,Y,Z ==> Vertex 4


  FenestrationSurface:Detailed,
    Floor_5_AHU2_Wall_N_Win,                  !- Name
    Window,                  !- Surface Type
    Exterior Window,         !- Construction Name
    Floor_5_AHU2_Wall_N,             !- Building Surface Name
    ,                        !- Outside Boundary Condition Object
    AutoCalculate,           !- View Factor to Ground
    ,                        !- Frame and Divider Name
    1.0,                     !- Multiplier
    4,                       !- Number of Vertices
    55.1950,38.0152,19.5580,  !- X,Y,Z ==> Vertex 1
    30.3393,38.0152,19.5580,  !- X,Y,Z ==> Vertex 2
    30.3393,38.0152,16.1036,  !- X,Y,Z ==> Vertex 3
    55.1950,38.0152,16.1036;  !- X,Y,Z ==> Vertex 4


  BuildingSurface:Detailed,
    Floor_5_AHU2_Wall_E,                  !- Name
    Wall,                 !- Surface Type
    Ext Wall,                !- Construction Name
    Floor_5_AHU2,                  !- Zone Name
    ,                        !- Space Name
    Outdoors,                   !- Outside Boundary Condition
    ,                        !- Outside Boundary Condition Object
    SunExposed,                   !- Sun Exposure
    WindExposed,                  !- Wind Exposure
    AutoCalculate,           !- View Factor to Ground
    4,                       !- Number of Vertices
    57.0229,0.0000,19.8120,  !- X,Y,Z ==> Vertex 1
    57.0229,38.0152,19.8120,  !- X,Y,Z ==> Vertex 2
    57.0229,38.0152,15.8496,  !- X,Y,Z ==> Vertex 3
    57.0229,0.0000,15.8496;  !- X,Y,Z ==> Vertex 4


  FenestrationSurface:Detailed,
    Floor_5_AHU2_Wall_E_Win,                  !- Name
    Window,                  !- Surface Type
    Exterior Window,         !- Construction Name
    Floor_5_AHU2_Wall_E,             !- Building Surface Name
    ,                        !- Outside Boundary Condition Object
    AutoCalculate,           !- View Factor to Ground
    ,                        !- Frame and Divider Name
    1.0,                     !- Multiplier
    4,                       !- Number of Vertices
    57.0229,2.4372,19.5580,  !- X,Y,Z ==> Vertex 1
    57.0229,35.5781,19.5580,  !- X,Y,Z ==> Vertex 2
    57.0229,35.5781,16.1036,  !- X,Y,Z ==> Vertex 3
    57.0229,2.4372,16.1036;  !- X,Y,Z ==> Vertex 4


  People, Floor_5_AHU2_People, Floor_5_AHU2, BLDG_OCC_SCH, People/Area, , 0.053821, , 0.3, , Activity level;
  Lights, Floor_5_AHU2_Lights, Floor_5_AHU2, BLDG_LIGHT_SCH, Watts/Area, , 10.5, , 0.2, 0.2, 0.2, 1, General;
  ElectricEquipment, Floor_5_AHU2_Equip, Floor_5_AHU2, BLDG_EQUIP_SCH, Watts/Area, , 8.0, , 0, 0.5, 0, General;
  ZoneInfiltration:DesignFlowRate, Floor_5_AHU2_Infil, Floor_5_AHU2, BLDG_INFIL_SCH, AirChanges/Hour, , , , 1.0, 1, 0, 0, 0;


  BuildingSurface:Detailed,
    Floor_5_AHU1_Partition_E,                  !- Name
    Wall,                 !- Surface Type
    Int Partition,                !- Construction Name
    Floor_5_AHU1,                  !- Zone Name
    ,                        !- Space Name
    Surface,                   !- Outside Boundary Condition
    Floor_5_AHU2_Partition_W,                        !- Outside Boundary Condition Object
    NoSun,                   !- Sun Exposure
    NoWind,                  !- Wind Exposure
    AutoCalculate,           !- View Factor to Ground
    4,                       !- Number of Vertices
    28.5114,0.0000,19.8120,  !- X,Y,Z ==> Vertex 1
    28.5114,38.0152,19.8120,  !- X,Y,Z ==> Vertex 2
    28.5114,38.0152,15.8496,  !- X,Y,Z ==> Vertex 3
    28.5114,0.0000,15.8496;  !- X,Y,Z ==> Vertex 4


  BuildingSurface:Detailed,
    Floor_5_AHU2_Partition_W,                  !- Name
    Wall,                 !- Surface Type
    Int Partition,                !- Construction Name
    Floor_5_AHU2,                  !- Zone Name
    ,                        !- Space Name
    Surface,                   !- Outside Boundary Condition
    Floor_5_AHU1_Partition_E,                        !- Outside Boundary Condition Object
    NoSun,                   !- Sun Exposure
    NoWind,                  !- Wind Exposure
    AutoCalculate,           !- View Factor to Ground
    4,                       !- Number of Vertices
    28.5114,38.0152,19.8120,  !- X,Y,Z ==> Vertex 1
    28.5114,0.0000,19.8120,  !- X,Y,Z ==> Vertex 2
    28.5114,0.0000,15.8496,  !- X,Y,Z ==> Vertex 3
    28.5114,38.0152,15.8496;  !- X,Y,Z ==> Vertex 4


  Zone,
    Floor_6_AHU1, 0, 0, 0, 0, 1, 1, autocalculate, autocalculate, autocalculate, , , Yes;


  BuildingSurface:Detailed,
    Floor_6_AHU1_Floor,                  !- Name
    Floor,                 !- Surface Type
    Int Floor,                !- Construction Name
    Floor_6_AHU1,                  !- Zone Name
    ,                        !- Space Name
    Surface,                   !- Outside Boundary Condition
    Floor_5_AHU1_Ceiling,                        !- Outside Boundary Condition Object
    NoSun,                   !- Sun Exposure
    NoWind,                  !- Wind Exposure
    AutoCalculate,           !- View Factor to Ground
    4,                       !- Number of Vertices
    0.0000,38.0152,19.8120,  !- X,Y,Z ==> Vertex 1
    0.0000,0.0000,19.8120,  !- X,Y,Z ==> Vertex 2
    28.5114,0.0000,19.8120,  !- X,Y,Z ==> Vertex 3
    28.5114,38.0152,19.8120;  !- X,Y,Z ==> Vertex 4


  BuildingSurface:Detailed,
    Floor_6_AHU1_Roof,                  !- Name
    Roof,                 !- Surface Type
    Ext Roof,                !- Construction Name
    Floor_6_AHU1,                  !- Zone Name
    ,                        !- Space Name
    Outdoors,                   !- Outside Boundary Condition
    ,                        !- Outside Boundary Condition Object
    SunExposed,                   !- Sun Exposure
    WindExposed,                  !- Wind Exposure
    AutoCalculate,           !- View Factor to Ground
    4,                       !- Number of Vertices
    0.0000,38.0152,23.7744,  !- X,Y,Z ==> Vertex 1
    28.5114,38.0152,23.7744,  !- X,Y,Z ==> Vertex 2
    28.5114,0.0000,23.7744,  !- X,Y,Z ==> Vertex 3
    0.0000,0.0000,23.7744;  !- X,Y,Z ==> Vertex 4


  BuildingSurface:Detailed,
    Floor_6_AHU1_Wall_S,                  !- Name
    Wall,                 !- Surface Type
    Ext Wall,                !- Construction Name
    Floor_6_AHU1,                  !- Zone Name
    ,                        !- Space Name
    Outdoors,                   !- Outside Boundary Condition
    ,                        !- Outside Boundary Condition Object
    SunExposed,                   !- Sun Exposure
    WindExposed,                  !- Wind Exposure
    AutoCalculate,           !- View Factor to Ground
    4,                       !- Number of Vertices
    0.0000,0.0000,23.7744,  !- X,Y,Z ==> Vertex 1
    28.5114,0.0000,23.7744,  !- X,Y,Z ==> Vertex 2
    28.5114,0.0000,19.8120,  !- X,Y,Z ==> Vertex 3
    0.0000,0.0000,19.8120;  !- X,Y,Z ==> Vertex 4


  FenestrationSurface:Detailed,
    Floor_6_AHU1_Wall_S_Win,                  !- Name
    Window,                  !- Surface Type
    Exterior Window,         !- Construction Name
    Floor_6_AHU1_Wall_S,             !- Building Surface Name
    ,                        !- Outside Boundary Condition Object
    AutoCalculate,           !- View Factor to Ground
    ,                        !- Frame and Divider Name
    1.0,                     !- Multiplier
    4,                       !- Number of Vertices
    1.8279,0.0000,23.5204,  !- X,Y,Z ==> Vertex 1
    26.6836,0.0000,23.5204,  !- X,Y,Z ==> Vertex 2
    26.6836,0.0000,20.0660,  !- X,Y,Z ==> Vertex 3
    1.8279,0.0000,20.0660;  !- X,Y,Z ==> Vertex 4


  BuildingSurface:Detailed,
    Floor_6_AHU1_Wall_N,                  !- Name
    Wall,                 !- Surface Type
    Ext Wall,                !- Construction Name
    Floor_6_AHU1,                  !- Zone Name
    ,                        !- Space Name
    Outdoors,                   !- Outside Boundary Condition
    ,                        !- Outside Boundary Condition Object
    SunExposed,                   !- Sun Exposure
    WindExposed,                  !- Wind Exposure
    AutoCalculate,           !- View Factor to Ground
    4,                       !- Number of Vertices
    28.5114,38.0152,23.7744,  !- X,Y,Z ==> Vertex 1
    0.0000,38.0152,23.7744,  !- X,Y,Z ==> Vertex 2
    0.0000,38.0152,19.8120,  !- X,Y,Z ==> Vertex 3
    28.5114,38.0152,19.8120;  !- X,Y,Z ==> Vertex 4


  FenestrationSurface:Detailed,
    Floor_6_AHU1_Wall_N_Win,                  !- Name
    Window,                  !- Surface Type
    Exterior Window,         !- Construction Name
    Floor_6_AHU1_Wall_N,             !- Building Surface Name
    ,                        !- Outside Boundary Condition Object
    AutoCalculate,           !- View Factor to Ground
    ,                        !- Frame and Divider Name
    1.0,                     !- Multiplier
    4,                       !- Number of Vertices
    26.6836,38.0152,23.5204,  !- X,Y,Z ==> Vertex 1
    1.8279,38.0152,23.5204,  !- X,Y,Z ==> Vertex 2
    1.8279,38.0152,20.0660,  !- X,Y,Z ==> Vertex 3
    26.6836,38.0152,20.0660;  !- X,Y,Z ==> Vertex 4


  BuildingSurface:Detailed,
    Floor_6_AHU1_Wall_W,                  !- Name
    Wall,                 !- Surface Type
    Ext Wall,                !- Construction Name
    Floor_6_AHU1,                  !- Zone Name
    ,                        !- Space Name
    Outdoors,                   !- Outside Boundary Condition
    ,                        !- Outside Boundary Condition Object
    SunExposed,                   !- Sun Exposure
    WindExposed,                  !- Wind Exposure
    AutoCalculate,           !- View Factor to Ground
    4,                       !- Number of Vertices
    0.0000,38.0152,23.7744,  !- X,Y,Z ==> Vertex 1
    0.0000,0.0000,23.7744,  !- X,Y,Z ==> Vertex 2
    0.0000,0.0000,19.8120,  !- X,Y,Z ==> Vertex 3
    0.0000,38.0152,19.8120;  !- X,Y,Z ==> Vertex 4


  FenestrationSurface:Detailed,
    Floor_6_AHU1_Wall_W_Win,                  !- Name
    Window,                  !- Surface Type
    Exterior Window,         !- Construction Name
    Floor_6_AHU1_Wall_W,             !- Building Surface Name
    ,                        !- Outside Boundary Condition Object
    AutoCalculate,           !- View Factor to Ground
    ,                        !- Frame and Divider Name
    1.0,                     !- Multiplier
    4,                       !- Number of Vertices
    0.0000,35.5781,23.5204,  !- X,Y,Z ==> Vertex 1
    0.0000,2.4372,23.5204,  !- X,Y,Z ==> Vertex 2
    0.0000,2.4372,20.0660,  !- X,Y,Z ==> Vertex 3
    0.0000,35.5781,20.0660;  !- X,Y,Z ==> Vertex 4


  People, Floor_6_AHU1_People, Floor_6_AHU1, BLDG_OCC_SCH, People/Area, , 0.053821, , 0.3, , Activity level;
  Lights, Floor_6_AHU1_Lights, Floor_6_AHU1, BLDG_LIGHT_SCH, Watts/Area, , 10.5, , 0.2, 0.2, 0.2, 1, General;
  ElectricEquipment, Floor_6_AHU1_Equip, Floor_6_AHU1, BLDG_EQUIP_SCH, Watts/Area, , 8.0, , 0, 0.5, 0, General;
  ZoneInfiltration:DesignFlowRate, Floor_6_AHU1_Infil, Floor_6_AHU1, BLDG_INFIL_SCH, AirChanges/Hour, , , , 1.0, 1, 0, 0, 0;


  Zone,
    Floor_6_AHU2, 0, 0, 0, 0, 1, 1, autocalculate, autocalculate, autocalculate, , , Yes;


  BuildingSurface:Detailed,
    Floor_6_AHU2_Floor,                  !- Name
    Floor,                 !- Surface Type
    Int Floor,                !- Construction Name
    Floor_6_AHU2,                  !- Zone Name
    ,                        !- Space Name
    Surface,                   !- Outside Boundary Condition
    Floor_5_AHU2_Ceiling,                        !- Outside Boundary Condition Object
    NoSun,                   !- Sun Exposure
    NoWind,                  !- Wind Exposure
    AutoCalculate,           !- View Factor to Ground
    4,                       !- Number of Vertices
    28.5114,38.0152,19.8120,  !- X,Y,Z ==> Vertex 1
    28.5114,0.0000,19.8120,  !- X,Y,Z ==> Vertex 2
    57.0229,0.0000,19.8120,  !- X,Y,Z ==> Vertex 3
    57.0229,38.0152,19.8120;  !- X,Y,Z ==> Vertex 4


  BuildingSurface:Detailed,
    Floor_6_AHU2_Roof,                  !- Name
    Roof,                 !- Surface Type
    Ext Roof,                !- Construction Name
    Floor_6_AHU2,                  !- Zone Name
    ,                        !- Space Name
    Outdoors,                   !- Outside Boundary Condition
    ,                        !- Outside Boundary Condition Object
    SunExposed,                   !- Sun Exposure
    WindExposed,                  !- Wind Exposure
    AutoCalculate,           !- View Factor to Ground
    4,                       !- Number of Vertices
    28.5114,38.0152,23.7744,  !- X,Y,Z ==> Vertex 1
    57.0229,38.0152,23.7744,  !- X,Y,Z ==> Vertex 2
    57.0229,0.0000,23.7744,  !- X,Y,Z ==> Vertex 3
    28.5114,0.0000,23.7744;  !- X,Y,Z ==> Vertex 4


  BuildingSurface:Detailed,
    Floor_6_AHU2_Wall_S,                  !- Name
    Wall,                 !- Surface Type
    Ext Wall,                !- Construction Name
    Floor_6_AHU2,                  !- Zone Name
    ,                        !- Space Name
    Outdoors,                   !- Outside Boundary Condition
    ,                        !- Outside Boundary Condition Object
    SunExposed,                   !- Sun Exposure
    WindExposed,                  !- Wind Exposure
    AutoCalculate,           !- View Factor to Ground
    4,                       !- Number of Vertices
    28.5114,0.0000,23.7744,  !- X,Y,Z ==> Vertex 1
    57.0229,0.0000,23.7744,  !- X,Y,Z ==> Vertex 2
    57.0229,0.0000,19.8120,  !- X,Y,Z ==> Vertex 3
    28.5114,0.0000,19.8120;  !- X,Y,Z ==> Vertex 4


  FenestrationSurface:Detailed,
    Floor_6_AHU2_Wall_S_Win,                  !- Name
    Window,                  !- Surface Type
    Exterior Window,         !- Construction Name
    Floor_6_AHU2_Wall_S,             !- Building Surface Name
    ,                        !- Outside Boundary Condition Object
    AutoCalculate,           !- View Factor to Ground
    ,                        !- Frame and Divider Name
    1.0,                     !- Multiplier
    4,                       !- Number of Vertices
    30.3393,0.0000,23.5204,  !- X,Y,Z ==> Vertex 1
    55.1950,0.0000,23.5204,  !- X,Y,Z ==> Vertex 2
    55.1950,0.0000,20.0660,  !- X,Y,Z ==> Vertex 3
    30.3393,0.0000,20.0660;  !- X,Y,Z ==> Vertex 4


  BuildingSurface:Detailed,
    Floor_6_AHU2_Wall_N,                  !- Name
    Wall,                 !- Surface Type
    Ext Wall,                !- Construction Name
    Floor_6_AHU2,                  !- Zone Name
    ,                        !- Space Name
    Outdoors,                   !- Outside Boundary Condition
    ,                        !- Outside Boundary Condition Object
    SunExposed,                   !- Sun Exposure
    WindExposed,                  !- Wind Exposure
    AutoCalculate,           !- View Factor to Ground
    4,                       !- Number of Vertices
    57.0229,38.0152,23.7744,  !- X,Y,Z ==> Vertex 1
    28.5114,38.0152,23.7744,  !- X,Y,Z ==> Vertex 2
    28.5114,38.0152,19.8120,  !- X,Y,Z ==> Vertex 3
    57.0229,38.0152,19.8120;  !- X,Y,Z ==> Vertex 4


  FenestrationSurface:Detailed,
    Floor_6_AHU2_Wall_N_Win,                  !- Name
    Window,                  !- Surface Type
    Exterior Window,         !- Construction Name
    Floor_6_AHU2_Wall_N,             !- Building Surface Name
    ,                        !- Outside Boundary Condition Object
    AutoCalculate,           !- View Factor to Ground
    ,                        !- Frame and Divider Name
    1.0,                     !- Multiplier
    4,                       !- Number of Vertices
    55.1950,38.0152,23.5204,  !- X,Y,Z ==> Vertex 1
    30.3393,38.0152,23.5204,  !- X,Y,Z ==> Vertex 2
    30.3393,38.0152,20.0660,  !- X,Y,Z ==> Vertex 3
    55.1950,38.0152,20.0660;  !- X,Y,Z ==> Vertex 4


  BuildingSurface:Detailed,
    Floor_6_AHU2_Wall_E,                  !- Name
    Wall,                 !- Surface Type
    Ext Wall,                !- Construction Name
    Floor_6_AHU2,                  !- Zone Name
    ,                        !- Space Name
    Outdoors,                   !- Outside Boundary Condition
    ,                        !- Outside Boundary Condition Object
    SunExposed,                   !- Sun Exposure
    WindExposed,                  !- Wind Exposure
    AutoCalculate,           !- View Factor to Ground
    4,                       !- Number of Vertices
    57.0229,0.0000,23.7744,  !- X,Y,Z ==> Vertex 1
    57.0229,38.0152,23.7744,  !- X,Y,Z ==> Vertex 2
    57.0229,38.0152,19.8120,  !- X,Y,Z ==> Vertex 3
    57.0229,0.0000,19.8120;  !- X,Y,Z ==> Vertex 4


  FenestrationSurface:Detailed,
    Floor_6_AHU2_Wall_E_Win,                  !- Name
    Window,                  !- Surface Type
    Exterior Window,         !- Construction Name
    Floor_6_AHU2_Wall_E,             !- Building Surface Name
    ,                        !- Outside Boundary Condition Object
    AutoCalculate,           !- View Factor to Ground
    ,                        !- Frame and Divider Name
    1.0,                     !- Multiplier
    4,                       !- Number of Vertices
    57.0229,2.4372,23.5204,  !- X,Y,Z ==> Vertex 1
    57.0229,35.5781,23.5204,  !- X,Y,Z ==> Vertex 2
    57.0229,35.5781,20.0660,  !- X,Y,Z ==> Vertex 3
    57.0229,2.4372,20.0660;  !- X,Y,Z ==> Vertex 4


  People, Floor_6_AHU2_People, Floor_6_AHU2, BLDG_OCC_SCH, People/Area, , 0.053821, , 0.3, , Activity level;
  Lights, Floor_6_AHU2_Lights, Floor_6_AHU2, BLDG_LIGHT_SCH, Watts/Area, , 10.5, , 0.2, 0.2, 0.2, 1, General;
  ElectricEquipment, Floor_6_AHU2_Equip, Floor_6_AHU2, BLDG_EQUIP_SCH, Watts/Area, , 8.0, , 0, 0.5, 0, General;
  ZoneInfiltration:DesignFlowRate, Floor_6_AHU2_Infil, Floor_6_AHU2, BLDG_INFIL_SCH, AirChanges/Hour, , , , 1.0, 1, 0, 0, 0;


  BuildingSurface:Detailed,
    Floor_6_AHU1_Partition_E,                  !- Name
    Wall,                 !- Surface Type
    Int Partition,                !- Construction Name
    Floor_6_AHU1,                  !- Zone Name
    ,                        !- Space Name
    Surface,                   !- Outside Boundary Condition
    Floor_6_AHU2_Partition_W,                        !- Outside Boundary Condition Object
    NoSun,                   !- Sun Exposure
    NoWind,                  !- Wind Exposure
    AutoCalculate,           !- View Factor to Ground
    4,                       !- Number of Vertices
    28.5114,0.0000,23.7744,  !- X,Y,Z ==> Vertex 1
    28.5114,38.0152,23.7744,  !- X,Y,Z ==> Vertex 2
    28.5114,38.0152,19.8120,  !- X,Y,Z ==> Vertex 3
    28.5114,0.0000,19.8120;  !- X,Y,Z ==> Vertex 4


  BuildingSurface:Detailed,
    Floor_6_AHU2_Partition_W,                  !- Name
    Wall,                 !- Surface Type
    Int Partition,                !- Construction Name
    Floor_6_AHU2,                  !- Zone Name
    ,                        !- Space Name
    Surface,                   !- Outside Boundary Condition
    Floor_6_AHU1_Partition_E,                        !- Outside Boundary Condition Object
    NoSun,                   !- Sun Exposure
    NoWind,                  !- Wind Exposure
    AutoCalculate,           !- View Factor to Ground
    4,                       !- Number of Vertices
    28.5114,38.0152,23.7744,  !- X,Y,Z ==> Vertex 1
    28.5114,0.0000,23.7744,  !- X,Y,Z ==> Vertex 2
    28.5114,0.0000,19.8120,  !- X,Y,Z ==> Vertex 3
    28.5114,38.0152,19.8120;  !- X,Y,Z ==> Vertex 4
! 
! 
!   HVACTemplate:Thermostat,
!     All Zones,               !- Name
!     Htg-SetP-Sch,            !- Heating Setpoint Schedule Name
!     ,                        !- Constant Heating Setpoint {C}
!     Clg-SetP-Sch,            !- Cooling Setpoint Schedule Name
!     ;                        !- Constant Cooling Setpoint {C}
! 
! 
!   HVACTemplate:Zone:VAV,
!     Floor_1_AHU1,                 !- Zone Name
!     VAV Sys 1,              !- Template VAV System Name
!     All Zones,               !- Template Thermostat Name
!     autosize,                !- Supply Air Maximum Flow Rate {m3/s}
!     ,                        !- Zone Heating Air Flow Rate {m3/s}
!     ,                        !- Zone Ventilation Air Flow Rate {m3/s}
!     Constant,                !- Zone Minimum Air Flow Input Method
!     0.3,                     !- Constant Minimum Air Flow Fraction
!     ,                        !- Fixed Minimum Air Flow Rate {m3/s}
!     ,                        !- Minimum Air Flow Fraction Schedule Name
!     flow/person,             !- Outdoor Air Method
!     0.00944,                 !- Outdoor Air Flow Rate per Person {m3/s}
!     0.0,                     !- Outdoor Air Flow Rate per Zone Floor Area {m3/s-m2}
!     0.0,                     !- Outdoor Air Flow Rate per Zone {m3/s}
!     HotWater,                !- Reheat Coil Type
!     ,                        !- Reheat Coil Availability Schedule Name
!     Reverse,                 !- Damper Heating Action
!     ,                        !- Maximum Flow per Zone Floor Area During Reheat {m3/s-m2}
!     ,                        !- Maximum Flow Fraction During Reheat
!     ,                        !- Maximum Reheat Air Temperature {C}
!     ,                        !- Design Specification Outdoor Air Object Name for Control
!     ,                        !- Supply Plenum Name
!     ,                        !- Return Plenum Name
!     None,                    !- Baseboard Heating Type
!     ,                        !- Baseboard Heating Availability Schedule Name
!     autosize,                !- Baseboard Heating Capacity {W}
!     SystemSupplyAirTemperature,  !- Zone Cooling Design Supply Air Temperature Input Method
!     ,                        !- Zone Cooling Design Supply Air Temperature {C}
!     ,                        !- Zone Cooling Design Supply Air Temperature Difference {deltaC}
!     SupplyAirTemperature,    !- Zone Heating Design Supply Air Temperature Input Method
!     50.0,                    !- Zone Heating Design Supply Air Temperature {C}
!     ;                        !- Zone Heating Design Supply Air Temperature Difference {deltaC}
! 
! 
!   HVACTemplate:Zone:VAV,
!     Floor_2_AHU1,                 !- Zone Name
!     VAV Sys 1,              !- Template VAV System Name
!     All Zones,               !- Template Thermostat Name
!     autosize,                !- Supply Air Maximum Flow Rate {m3/s}
!     ,                        !- Zone Heating Air Flow Rate {m3/s}
!     ,                        !- Zone Ventilation Air Flow Rate {m3/s}
!     Constant,                !- Zone Minimum Air Flow Input Method
!     0.3,                     !- Constant Minimum Air Flow Fraction
!     ,                        !- Fixed Minimum Air Flow Rate {m3/s}
!     ,                        !- Minimum Air Flow Fraction Schedule Name
!     flow/person,             !- Outdoor Air Method
!     0.00944,                 !- Outdoor Air Flow Rate per Person {m3/s}
!     0.0,                     !- Outdoor Air Flow Rate per Zone Floor Area {m3/s-m2}
!     0.0,                     !- Outdoor Air Flow Rate per Zone {m3/s}
!     HotWater,                !- Reheat Coil Type
!     ,                        !- Reheat Coil Availability Schedule Name
!     Reverse,                 !- Damper Heating Action
!     ,                        !- Maximum Flow per Zone Floor Area During Reheat {m3/s-m2}
!     ,                        !- Maximum Flow Fraction During Reheat
!     ,                        !- Maximum Reheat Air Temperature {C}
!     ,                        !- Design Specification Outdoor Air Object Name for Control
!     ,                        !- Supply Plenum Name
!     ,                        !- Return Plenum Name
!     None,                    !- Baseboard Heating Type
!     ,                        !- Baseboard Heating Availability Schedule Name
!     autosize,                !- Baseboard Heating Capacity {W}
!     SystemSupplyAirTemperature,  !- Zone Cooling Design Supply Air Temperature Input Method
!     ,                        !- Zone Cooling Design Supply Air Temperature {C}
!     ,                        !- Zone Cooling Design Supply Air Temperature Difference {deltaC}
!     SupplyAirTemperature,    !- Zone Heating Design Supply Air Temperature Input Method
!     50.0,                    !- Zone Heating Design Supply Air Temperature {C}
!     ;                        !- Zone Heating Design Supply Air Temperature Difference {deltaC}
! 
! 
!   HVACTemplate:Zone:VAV,
!     Floor_3_AHU1,                 !- Zone Name
!     VAV Sys 1,              !- Template VAV System Name
!     All Zones,               !- Template Thermostat Name
!     autosize,                !- Supply Air Maximum Flow Rate {m3/s}
!     ,                        !- Zone Heating Air Flow Rate {m3/s}
!     ,                        !- Zone Ventilation Air Flow Rate {m3/s}
!     Constant,                !- Zone Minimum Air Flow Input Method
!     0.3,                     !- Constant Minimum Air Flow Fraction
!     ,                        !- Fixed Minimum Air Flow Rate {m3/s}
!     ,                        !- Minimum Air Flow Fraction Schedule Name
!     flow/person,             !- Outdoor Air Method
!     0.00944,                 !- Outdoor Air Flow Rate per Person {m3/s}
!     0.0,                     !- Outdoor Air Flow Rate per Zone Floor Area {m3/s-m2}
!     0.0,                     !- Outdoor Air Flow Rate per Zone {m3/s}
!     HotWater,                !- Reheat Coil Type
!     ,                        !- Reheat Coil Availability Schedule Name
!     Reverse,                 !- Damper Heating Action
!     ,                        !- Maximum Flow per Zone Floor Area During Reheat {m3/s-m2}
!     ,                        !- Maximum Flow Fraction During Reheat
!     ,                        !- Maximum Reheat Air Temperature {C}
!     ,                        !- Design Specification Outdoor Air Object Name for Control
!     ,                        !- Supply Plenum Name
!     ,                        !- Return Plenum Name
!     None,                    !- Baseboard Heating Type
!     ,                        !- Baseboard Heating Availability Schedule Name
!     autosize,                !- Baseboard Heating Capacity {W}
!     SystemSupplyAirTemperature,  !- Zone Cooling Design Supply Air Temperature Input Method
!     ,                        !- Zone Cooling Design Supply Air Temperature {C}
!     ,                        !- Zone Cooling Design Supply Air Temperature Difference {deltaC}
!     SupplyAirTemperature,    !- Zone Heating Design Supply Air Temperature Input Method
!     50.0,                    !- Zone Heating Design Supply Air Temperature {C}
!     ;                        !- Zone Heating Design Supply Air Temperature Difference {deltaC}
! 
! 
!   HVACTemplate:Zone:VAV,
!     Floor_4_AHU1,                 !- Zone Name
!     VAV Sys 1,              !- Template VAV System Name
!     All Zones,               !- Template Thermostat Name
!     autosize,                !- Supply Air Maximum Flow Rate {m3/s}
!     ,                        !- Zone Heating Air Flow Rate {m3/s}
!     ,                        !- Zone Ventilation Air Flow Rate {m3/s}
!     Constant,                !- Zone Minimum Air Flow Input Method
!     0.3,                     !- Constant Minimum Air Flow Fraction
!     ,                        !- Fixed Minimum Air Flow Rate {m3/s}
!     ,                        !- Minimum Air Flow Fraction Schedule Name
!     flow/person,             !- Outdoor Air Method
!     0.00944,                 !- Outdoor Air Flow Rate per Person {m3/s}
!     0.0,                     !- Outdoor Air Flow Rate per Zone Floor Area {m3/s-m2}
!     0.0,                     !- Outdoor Air Flow Rate per Zone {m3/s}
!     HotWater,                !- Reheat Coil Type
!     ,                        !- Reheat Coil Availability Schedule Name
!     Reverse,                 !- Damper Heating Action
!     ,                        !- Maximum Flow per Zone Floor Area During Reheat {m3/s-m2}
!     ,                        !- Maximum Flow Fraction During Reheat
!     ,                        !- Maximum Reheat Air Temperature {C}
!     ,                        !- Design Specification Outdoor Air Object Name for Control
!     ,                        !- Supply Plenum Name
!     ,                        !- Return Plenum Name
!     None,                    !- Baseboard Heating Type
!     ,                        !- Baseboard Heating Availability Schedule Name
!     autosize,                !- Baseboard Heating Capacity {W}
!     SystemSupplyAirTemperature,  !- Zone Cooling Design Supply Air Temperature Input Method
!     ,                        !- Zone Cooling Design Supply Air Temperature {C}
!     ,                        !- Zone Cooling Design Supply Air Temperature Difference {deltaC}
!     SupplyAirTemperature,    !- Zone Heating Design Supply Air Temperature Input Method
!     50.0,                    !- Zone Heating Design Supply Air Temperature {C}
!     ;                        !- Zone Heating Design Supply Air Temperature Difference {deltaC}
! 
! 
!   HVACTemplate:Zone:VAV,
!     Floor_5_AHU1,                 !- Zone Name
!     VAV Sys 1,              !- Template VAV System Name
!     All Zones,               !- Template Thermostat Name
!     autosize,                !- Supply Air Maximum Flow Rate {m3/s}
!     ,                        !- Zone Heating Air Flow Rate {m3/s}
!     ,                        !- Zone Ventilation Air Flow Rate {m3/s}
!     Constant,                !- Zone Minimum Air Flow Input Method
!     0.3,                     !- Constant Minimum Air Flow Fraction
!     ,                        !- Fixed Minimum Air Flow Rate {m3/s}
!     ,                        !- Minimum Air Flow Fraction Schedule Name
!     flow/person,             !- Outdoor Air Method
!     0.00944,                 !- Outdoor Air Flow Rate per Person {m3/s}
!     0.0,                     !- Outdoor Air Flow Rate per Zone Floor Area {m3/s-m2}
!     0.0,                     !- Outdoor Air Flow Rate per Zone {m3/s}
!     HotWater,                !- Reheat Coil Type
!     ,                        !- Reheat Coil Availability Schedule Name
!     Reverse,                 !- Damper Heating Action
!     ,                        !- Maximum Flow per Zone Floor Area During Reheat {m3/s-m2}
!     ,                        !- Maximum Flow Fraction During Reheat
!     ,                        !- Maximum Reheat Air Temperature {C}
!     ,                        !- Design Specification Outdoor Air Object Name for Control
!     ,                        !- Supply Plenum Name
!     ,                        !- Return Plenum Name
!     None,                    !- Baseboard Heating Type
!     ,                        !- Baseboard Heating Availability Schedule Name
!     autosize,                !- Baseboard Heating Capacity {W}
!     SystemSupplyAirTemperature,  !- Zone Cooling Design Supply Air Temperature Input Method
!     ,                        !- Zone Cooling Design Supply Air Temperature {C}
!     ,                        !- Zone Cooling Design Supply Air Temperature Difference {deltaC}
!     SupplyAirTemperature,    !- Zone Heating Design Supply Air Temperature Input Method
!     50.0,                    !- Zone Heating Design Supply Air Temperature {C}
!     ;                        !- Zone Heating Design Supply Air Temperature Difference {deltaC}
! 
! 
!   HVACTemplate:Zone:VAV,
!     Floor_6_AHU1,                 !- Zone Name
!     VAV Sys 1,              !- Template VAV System Name
!     All Zones,               !- Template Thermostat Name
!     autosize,                !- Supply Air Maximum Flow Rate {m3/s}
!     ,                        !- Zone Heating Air Flow Rate {m3/s}
!     ,                        !- Zone Ventilation Air Flow Rate {m3/s}
!     Constant,                !- Zone Minimum Air Flow Input Method
!     0.3,                     !- Constant Minimum Air Flow Fraction
!     ,                        !- Fixed Minimum Air Flow Rate {m3/s}
!     ,                        !- Minimum Air Flow Fraction Schedule Name
!     flow/person,             !- Outdoor Air Method
!     0.00944,                 !- Outdoor Air Flow Rate per Person {m3/s}
!     0.0,                     !- Outdoor Air Flow Rate per Zone Floor Area {m3/s-m2}
!     0.0,                     !- Outdoor Air Flow Rate per Zone {m3/s}
!     HotWater,                !- Reheat Coil Type
!     ,                        !- Reheat Coil Availability Schedule Name
!     Reverse,                 !- Damper Heating Action
!     ,                        !- Maximum Flow per Zone Floor Area During Reheat {m3/s-m2}
!     ,                        !- Maximum Flow Fraction During Reheat
!     ,                        !- Maximum Reheat Air Temperature {C}
!     ,                        !- Design Specification Outdoor Air Object Name for Control
!     ,                        !- Supply Plenum Name
!     ,                        !- Return Plenum Name
!     None,                    !- Baseboard Heating Type
!     ,                        !- Baseboard Heating Availability Schedule Name
!     autosize,                !- Baseboard Heating Capacity {W}
!     SystemSupplyAirTemperature,  !- Zone Cooling Design Supply Air Temperature Input Method
!     ,                        !- Zone Cooling Design Supply Air Temperature {C}
!     ,                        !- Zone Cooling Design Supply Air Temperature Difference {deltaC}
!     SupplyAirTemperature,    !- Zone Heating Design Supply Air Temperature Input Method
!     50.0,                    !- Zone Heating Design Supply Air Temperature {C}
!     ;                        !- Zone Heating Design Supply Air Temperature Difference {deltaC}
! 
! 
!   HVACTemplate:Zone:VAV,
!     Floor_1_AHU2,                 !- Zone Name
!     VAV Sys 2,              !- Template VAV System Name
!     All Zones,               !- Template Thermostat Name
!     autosize,                !- Supply Air Maximum Flow Rate {m3/s}
!     ,                        !- Zone Heating Air Flow Rate {m3/s}
!     ,                        !- Zone Ventilation Air Flow Rate {m3/s}
!     Constant,                !- Zone Minimum Air Flow Input Method
!     0.3,                     !- Constant Minimum Air Flow Fraction
!     ,                        !- Fixed Minimum Air Flow Rate {m3/s}
!     ,                        !- Minimum Air Flow Fraction Schedule Name
!     flow/person,             !- Outdoor Air Method
!     0.00944,                 !- Outdoor Air Flow Rate per Person {m3/s}
!     0.0,                     !- Outdoor Air Flow Rate per Zone Floor Area {m3/s-m2}
!     0.0,                     !- Outdoor Air Flow Rate per Zone {m3/s}
!     HotWater,                !- Reheat Coil Type
!     ,                        !- Reheat Coil Availability Schedule Name
!     Reverse,                 !- Damper Heating Action
!     ,                        !- Maximum Flow per Zone Floor Area During Reheat {m3/s-m2}
!     ,                        !- Maximum Flow Fraction During Reheat
!     ,                        !- Maximum Reheat Air Temperature {C}
!     ,                        !- Design Specification Outdoor Air Object Name for Control
!     ,                        !- Supply Plenum Name
!     ,                        !- Return Plenum Name
!     None,                    !- Baseboard Heating Type
!     ,                        !- Baseboard Heating Availability Schedule Name
!     autosize,                !- Baseboard Heating Capacity {W}
!     SystemSupplyAirTemperature,  !- Zone Cooling Design Supply Air Temperature Input Method
!     ,                        !- Zone Cooling Design Supply Air Temperature {C}
!     ,                        !- Zone Cooling Design Supply Air Temperature Difference {deltaC}
!     SupplyAirTemperature,    !- Zone Heating Design Supply Air Temperature Input Method
!     50.0,                    !- Zone Heating Design Supply Air Temperature {C}
!     ;                        !- Zone Heating Design Supply Air Temperature Difference {deltaC}
! 
! 
!   HVACTemplate:Zone:VAV,
!     Floor_2_AHU2,                 !- Zone Name
!     VAV Sys 2,              !- Template VAV System Name
!     All Zones,               !- Template Thermostat Name
!     autosize,                !- Supply Air Maximum Flow Rate {m3/s}
!     ,                        !- Zone Heating Air Flow Rate {m3/s}
!     ,                        !- Zone Ventilation Air Flow Rate {m3/s}
!     Constant,                !- Zone Minimum Air Flow Input Method
!     0.3,                     !- Constant Minimum Air Flow Fraction
!     ,                        !- Fixed Minimum Air Flow Rate {m3/s}
!     ,                        !- Minimum Air Flow Fraction Schedule Name
!     flow/person,             !- Outdoor Air Method
!     0.00944,                 !- Outdoor Air Flow Rate per Person {m3/s}
!     0.0,                     !- Outdoor Air Flow Rate per Zone Floor Area {m3/s-m2}
!     0.0,                     !- Outdoor Air Flow Rate per Zone {m3/s}
!     HotWater,                !- Reheat Coil Type
!     ,                        !- Reheat Coil Availability Schedule Name
!     Reverse,                 !- Damper Heating Action
!     ,                        !- Maximum Flow per Zone Floor Area During Reheat {m3/s-m2}
!     ,                        !- Maximum Flow Fraction During Reheat
!     ,                        !- Maximum Reheat Air Temperature {C}
!     ,                        !- Design Specification Outdoor Air Object Name for Control
!     ,                        !- Supply Plenum Name
!     ,                        !- Return Plenum Name
!     None,                    !- Baseboard Heating Type
!     ,                        !- Baseboard Heating Availability Schedule Name
!     autosize,                !- Baseboard Heating Capacity {W}
!     SystemSupplyAirTemperature,  !- Zone Cooling Design Supply Air Temperature Input Method
!     ,                        !- Zone Cooling Design Supply Air Temperature {C}
!     ,                        !- Zone Cooling Design Supply Air Temperature Difference {deltaC}
!     SupplyAirTemperature,    !- Zone Heating Design Supply Air Temperature Input Method
!     50.0,                    !- Zone Heating Design Supply Air Temperature {C}
!     ;                        !- Zone Heating Design Supply Air Temperature Difference {deltaC}
! 
! 
!   HVACTemplate:Zone:VAV,
!     Floor_3_AHU2,                 !- Zone Name
!     VAV Sys 2,              !- Template VAV System Name
!     All Zones,               !- Template Thermostat Name
!     autosize,                !- Supply Air Maximum Flow Rate {m3/s}
!     ,                        !- Zone Heating Air Flow Rate {m3/s}
!     ,                        !- Zone Ventilation Air Flow Rate {m3/s}
!     Constant,                !- Zone Minimum Air Flow Input Method
!     0.3,                     !- Constant Minimum Air Flow Fraction
!     ,                        !- Fixed Minimum Air Flow Rate {m3/s}
!     ,                        !- Minimum Air Flow Fraction Schedule Name
!     flow/person,             !- Outdoor Air Method
!     0.00944,                 !- Outdoor Air Flow Rate per Person {m3/s}
!     0.0,                     !- Outdoor Air Flow Rate per Zone Floor Area {m3/s-m2}
!     0.0,                     !- Outdoor Air Flow Rate per Zone {m3/s}
!     HotWater,                !- Reheat Coil Type
!     ,                        !- Reheat Coil Availability Schedule Name
!     Reverse,                 !- Damper Heating Action
!     ,                        !- Maximum Flow per Zone Floor Area During Reheat {m3/s-m2}
!     ,                        !- Maximum Flow Fraction During Reheat
!     ,                        !- Maximum Reheat Air Temperature {C}
!     ,                        !- Design Specification Outdoor Air Object Name for Control
!     ,                        !- Supply Plenum Name
!     ,                        !- Return Plenum Name
!     None,                    !- Baseboard Heating Type
!     ,                        !- Baseboard Heating Availability Schedule Name
!     autosize,                !- Baseboard Heating Capacity {W}
!     SystemSupplyAirTemperature,  !- Zone Cooling Design Supply Air Temperature Input Method
!     ,                        !- Zone Cooling Design Supply Air Temperature {C}
!     ,                        !- Zone Cooling Design Supply Air Temperature Difference {deltaC}
!     SupplyAirTemperature,    !- Zone Heating Design Supply Air Temperature Input Method
!     50.0,                    !- Zone Heating Design Supply Air Temperature {C}
!     ;                        !- Zone Heating Design Supply Air Temperature Difference {deltaC}
! 
! 
!   HVACTemplate:Zone:VAV,
!     Floor_4_AHU2,                 !- Zone Name
!     VAV Sys 2,              !- Template VAV System Name
!     All Zones,               !- Template Thermostat Name
!     autosize,                !- Supply Air Maximum Flow Rate {m3/s}
!     ,                        !- Zone Heating Air Flow Rate {m3/s}
!     ,                        !- Zone Ventilation Air Flow Rate {m3/s}
!     Constant,                !- Zone Minimum Air Flow Input Method
!     0.3,                     !- Constant Minimum Air Flow Fraction
!     ,                        !- Fixed Minimum Air Flow Rate {m3/s}
!     ,                        !- Minimum Air Flow Fraction Schedule Name
!     flow/person,             !- Outdoor Air Method
!     0.00944,                 !- Outdoor Air Flow Rate per Person {m3/s}
!     0.0,                     !- Outdoor Air Flow Rate per Zone Floor Area {m3/s-m2}
!     0.0,                     !- Outdoor Air Flow Rate per Zone {m3/s}
!     HotWater,                !- Reheat Coil Type
!     ,                        !- Reheat Coil Availability Schedule Name
!     Reverse,                 !- Damper Heating Action
!     ,                        !- Maximum Flow per Zone Floor Area During Reheat {m3/s-m2}
!     ,                        !- Maximum Flow Fraction During Reheat
!     ,                        !- Maximum Reheat Air Temperature {C}
!     ,                        !- Design Specification Outdoor Air Object Name for Control
!     ,                        !- Supply Plenum Name
!     ,                        !- Return Plenum Name
!     None,                    !- Baseboard Heating Type
!     ,                        !- Baseboard Heating Availability Schedule Name
!     autosize,                !- Baseboard Heating Capacity {W}
!     SystemSupplyAirTemperature,  !- Zone Cooling Design Supply Air Temperature Input Method
!     ,                        !- Zone Cooling Design Supply Air Temperature {C}
!     ,                        !- Zone Cooling Design Supply Air Temperature Difference {deltaC}
!     SupplyAirTemperature,    !- Zone Heating Design Supply Air Temperature Input Method
!     50.0,                    !- Zone Heating Design Supply Air Temperature {C}
!     ;                        !- Zone Heating Design Supply Air Temperature Difference {deltaC}
! 
! 
!   HVACTemplate:Zone:VAV,
!     Floor_5_AHU2,                 !- Zone Name
!     VAV Sys 2,              !- Template VAV System Name
!     All Zones,               !- Template Thermostat Name
!     autosize,                !- Supply Air Maximum Flow Rate {m3/s}
!     ,                        !- Zone Heating Air Flow Rate {m3/s}
!     ,                        !- Zone Ventilation Air Flow Rate {m3/s}
!     Constant,                !- Zone Minimum Air Flow Input Method
!     0.3,                     !- Constant Minimum Air Flow Fraction
!     ,                        !- Fixed Minimum Air Flow Rate {m3/s}
!     ,                        !- Minimum Air Flow Fraction Schedule Name
!     flow/person,             !- Outdoor Air Method
!     0.00944,                 !- Outdoor Air Flow Rate per Person {m3/s}
!     0.0,                     !- Outdoor Air Flow Rate per Zone Floor Area {m3/s-m2}
!     0.0,                     !- Outdoor Air Flow Rate per Zone {m3/s}
!     HotWater,                !- Reheat Coil Type
!     ,                        !- Reheat Coil Availability Schedule Name
!     Reverse,                 !- Damper Heating Action
!     ,                        !- Maximum Flow per Zone Floor Area During Reheat {m3/s-m2}
!     ,                        !- Maximum Flow Fraction During Reheat
!     ,                        !- Maximum Reheat Air Temperature {C}
!     ,                        !- Design Specification Outdoor Air Object Name for Control
!     ,                        !- Supply Plenum Name
!     ,                        !- Return Plenum Name
!     None,                    !- Baseboard Heating Type
!     ,                        !- Baseboard Heating Availability Schedule Name
!     autosize,                !- Baseboard Heating Capacity {W}
!     SystemSupplyAirTemperature,  !- Zone Cooling Design Supply Air Temperature Input Method
!     ,                        !- Zone Cooling Design Supply Air Temperature {C}
!     ,                        !- Zone Cooling Design Supply Air Temperature Difference {deltaC}
!     SupplyAirTemperature,    !- Zone Heating Design Supply Air Temperature Input Method
!     50.0,                    !- Zone Heating Design Supply Air Temperature {C}
!     ;                        !- Zone Heating Design Supply Air Temperature Difference {deltaC}
! 
! 
!   HVACTemplate:Zone:VAV,
!     Floor_6_AHU2,                 !- Zone Name
!     VAV Sys 2,              !- Template VAV System Name
!     All Zones,               !- Template Thermostat Name
!     autosize,                !- Supply Air Maximum Flow Rate {m3/s}
!     ,                        !- Zone Heating Air Flow Rate {m3/s}
!     ,                        !- Zone Ventilation Air Flow Rate {m3/s}
!     Constant,                !- Zone Minimum Air Flow Input Method
!     0.3,                     !- Constant Minimum Air Flow Fraction
!     ,                        !- Fixed Minimum Air Flow Rate {m3/s}
!     ,                        !- Minimum Air Flow Fraction Schedule Name
!     flow/person,             !- Outdoor Air Method
!     0.00944,                 !- Outdoor Air Flow Rate per Person {m3/s}
!     0.0,                     !- Outdoor Air Flow Rate per Zone Floor Area {m3/s-m2}
!     0.0,                     !- Outdoor Air Flow Rate per Zone {m3/s}
!     HotWater,                !- Reheat Coil Type
!     ,                        !- Reheat Coil Availability Schedule Name
!     Reverse,                 !- Damper Heating Action
!     ,                        !- Maximum Flow per Zone Floor Area During Reheat {m3/s-m2}
!     ,                        !- Maximum Flow Fraction During Reheat
!     ,                        !- Maximum Reheat Air Temperature {C}
!     ,                        !- Design Specification Outdoor Air Object Name for Control
!     ,                        !- Supply Plenum Name
!     ,                        !- Return Plenum Name
!     None,                    !- Baseboard Heating Type
!     ,                        !- Baseboard Heating Availability Schedule Name
!     autosize,                !- Baseboard Heating Capacity {W}
!     SystemSupplyAirTemperature,  !- Zone Cooling Design Supply Air Temperature Input Method
!     ,                        !- Zone Cooling Design Supply Air Temperature {C}
!     ,                        !- Zone Cooling Design Supply Air Temperature Difference {deltaC}
!     SupplyAirTemperature,    !- Zone Heating Design Supply Air Temperature Input Method
!     50.0,                    !- Zone Heating Design Supply Air Temperature {C}
!     ;                        !- Zone Heating Design Supply Air Temperature Difference {deltaC}
! 
! 
!   HVACTemplate:System:VAV,
!     VAV Sys 1,              !- Name
!     FanAvailSched,           !- System Availability Schedule Name
!     autosize,                !- Supply Fan Maximum Flow Rate {m3/s}
!     autosize,                !- Supply Fan Minimum Flow Rate {m3/s}
!     0.7,                     !- Supply Fan Total Efficiency
!     600,                     !- Supply Fan Delta Pressure {Pa}
!     0.9,                     !- Supply Fan Motor Efficiency
!     1,                       !- Supply Fan Motor in Air Stream Fraction
!     ChilledWater,            !- Cooling Coil Type
!     ,                        !- Cooling Coil Availability Schedule Name
!     ,                        !- Cooling Coil Setpoint Schedule Name
!     12.8,                    !- Cooling Coil Design Setpoint {C}
!     HotWater,                !- Heating Coil Type
!     ,                        !- Heating Coil Availability Schedule Name
!     ,                        !- Heating Coil Setpoint Schedule Name
!     10.0,                    !- Heating Coil Design Setpoint {C}
!     0.8,                     !- Gas Heating Coil Efficiency
!     0.0,                     !- Gas Heating Coil Parasitic Electric Load {W}
!     None,                    !- Preheat Coil Type
!     ,                        !- Preheat Coil Availability Schedule Name
!     ,                        !- Preheat Coil Setpoint Schedule Name
!     ,                        !- Preheat Coil Design Setpoint {C}
!     0.8,                     !- Gas Preheat Coil Efficiency
!     0.0,                     !- Gas Preheat Coil Parasitic Electric Load {W}
!     autosize,                !- Maximum Outdoor Air Flow Rate {m3/s}
!     autosize,                !- Minimum Outdoor Air Flow Rate {m3/s}
!     FixedMinimum,            !- Minimum Outdoor Air Control Type
!     Min OA Sched,            !- Minimum Outdoor Air Schedule Name
!     DifferentialDryBulb,     !- Economizer Type
!     NoLockout,               !- Economizer Lockout
!     19,                      !- Economizer Upper Temperature Limit {C}
!     4,                       !- Economizer Lower Temperature Limit {C}
!     ,                        !- Economizer Upper Enthalpy Limit {J/kg}
!     ,                        !- Economizer Maximum Limit Dewpoint Temperature {C}
!     ,                        !- Supply Plenum Name
!     ,                        !- Return Plenum Name
!     DrawThrough,             !- Supply Fan Placement
!     InletVaneDampers,        !- Supply Fan Part-Load Power Coefficients
!     CycleOnAny,              !- Night Cycle Control
!     Floor_1_AHU1,            !- Night Cycle Control Zone Name
!     None,                    !- Heat Recovery Type
!     0.70,                    !- Sensible Heat Recovery Effectiveness
!     0.65,                    !- Latent Heat Recovery Effectiveness
!     None,                    !- Cooling Coil Setpoint Reset Type
!     None,                    !- Heating Coil Setpoint Reset Type
!     None,                    !- Dehumidification Control Type
!     ,                        !- Dehumidification Control Zone Name
!     60.0,                    !- Dehumidification Setpoint {percent}
!     None,                    !- Humidifier Type
!     ,                        !- Humidifier Availability Schedule Name
!     0.000001,                !- Humidifier Rated Capacity {m3/s}
!     2690.0,                  !- Humidifier Rated Electric Power {W}
!     ,                        !- Humidifier Control Zone Name
!     30.0,                    !- Humidifier Setpoint {percent}
!     NonCoincident,           !- Sizing Option
!     ,                        !- Return Fan
!     ,                        !- Return Fan Total Efficiency
!     ,                        !- Return Fan Delta Pressure {Pa}
!     ,                        !- Return Fan Motor Efficiency
!     ,                        !- Return Fan Motor in Air Stream Fraction
!     ;                        !- Return Fan Part-Load Power Coefficients
! 
! 
!   HVACTemplate:System:VAV,
!     VAV Sys 2,              !- Name
!     FanAvailSched,           !- System Availability Schedule Name
!     autosize,                !- Supply Fan Maximum Flow Rate {m3/s}
!     autosize,                !- Supply Fan Minimum Flow Rate {m3/s}
!     0.7,                     !- Supply Fan Total Efficiency
!     600,                     !- Supply Fan Delta Pressure {Pa}
!     0.9,                     !- Supply Fan Motor Efficiency
!     1,                       !- Supply Fan Motor in Air Stream Fraction
!     ChilledWater,            !- Cooling Coil Type
!     ,                        !- Cooling Coil Availability Schedule Name
!     ,                        !- Cooling Coil Setpoint Schedule Name
!     8.89,                    !- Cooling Coil Design Setpoint {C}
!     HotWater,                !- Heating Coil Type
!     ,                        !- Heating Coil Availability Schedule Name
!     ,                        !- Heating Coil Setpoint Schedule Name
!     10.0,                    !- Heating Coil Design Setpoint {C}
!     0.8,                     !- Gas Heating Coil Efficiency
!     0.0,                     !- Gas Heating Coil Parasitic Electric Load {W}
!     None,                    !- Preheat Coil Type
!     ,                        !- Preheat Coil Availability Schedule Name
!     ,                        !- Preheat Coil Setpoint Schedule Name
!     ,                        !- Preheat Coil Design Setpoint {C}
!     0.8,                     !- Gas Preheat Coil Efficiency
!     0.0,                     !- Gas Preheat Coil Parasitic Electric Load {W}
!     autosize,                !- Maximum Outdoor Air Flow Rate {m3/s}
!     autosize,                !- Minimum Outdoor Air Flow Rate {m3/s}
!     FixedMinimum,            !- Minimum Outdoor Air Control Type
!     Min OA Sched,            !- Minimum Outdoor Air Schedule Name
!     DifferentialDryBulb,     !- Economizer Type
!     NoLockout,               !- Economizer Lockout
!     19,                      !- Economizer Upper Temperature Limit {C}
!     4,                       !- Economizer Lower Temperature Limit {C}
!     ,                        !- Economizer Upper Enthalpy Limit {J/kg}
!     ,                        !- Economizer Maximum Limit Dewpoint Temperature {C}
!     ,                        !- Supply Plenum Name
!     ,                        !- Return Plenum Name
!     DrawThrough,             !- Supply Fan Placement
!     InletVaneDampers,        !- Supply Fan Part-Load Power Coefficients
!     CycleOnAny,              !- Night Cycle Control
!     Floor_1_AHU2,            !- Night Cycle Control Zone Name
!     None,                    !- Heat Recovery Type
!     0.70,                    !- Sensible Heat Recovery Effectiveness
!     0.65,                    !- Latent Heat Recovery Effectiveness
!     None,                    !- Cooling Coil Setpoint Reset Type
!     None,                    !- Heating Coil Setpoint Reset Type
!     None,                    !- Dehumidification Control Type
!     ,                        !- Dehumidification Control Zone Name
!     60.0,                    !- Dehumidification Setpoint {percent}
!     None,                    !- Humidifier Type
!     ,                        !- Humidifier Availability Schedule Name
!     0.000001,                !- Humidifier Rated Capacity {m3/s}
!     2690.0,                  !- Humidifier Rated Electric Power {W}
!     ,                        !- Humidifier Control Zone Name
!     30.0,                    !- Humidifier Setpoint {percent}
!     NonCoincident,           !- Sizing Option
!     ,                        !- Return Fan
!     ,                        !- Return Fan Total Efficiency
!     ,                        !- Return Fan Delta Pressure {Pa}
!     ,                        !- Return Fan Motor Efficiency
!     ,                        !- Return Fan Motor in Air Stream Fraction
!     ;                        !- Return Fan Part-Load Power Coefficients
! 
! 
!   HVACTemplate:Plant:ChilledWaterLoop,
!     Chilled Water Loop,      !- Name
!     ,                        !- Pump Schedule Name
!     INTERMITTENT,            !- Pump Control Type
!     Default,                 !- Chiller Plant Operation Scheme Type
!     ,                        !- Chiller Plant Equipment Operation Schemes Name
!     ,                        !- Chilled Water Setpoint Schedule Name
!     7.22,                    !- Chilled Water Design Setpoint {C}
!     ConstantPrimaryNoSecondary,  !- Chilled Water Pump Configuration
!     179352,                  !- Primary Chilled Water Pump Rated Head {Pa}
!     179352,                  !- Secondary Chilled Water Pump Rated Head {Pa}
!     Default,                 !- Condenser Plant Operation Scheme Type
!     ,                        !- Condenser Equipment Operation Schemes Name
!     ,                        !- Condenser Water Temperature Control Type
!     ,                        !- Condenser Water Setpoint Schedule Name
!     29.4,                    !- Condenser Water Design Setpoint {C}
!     179352,                  !- Condenser Water Pump Rated Head {Pa}
!     None,                    !- Chilled Water Setpoint Reset Type
!     12.2,                    !- Chilled Water Setpoint at Outdoor Dry-Bulb Low {C}
!     15.6,                    !- Chilled Water Reset Outdoor Dry-Bulb Low {C}
!     6.7,                     !- Chilled Water Setpoint at Outdoor Dry-Bulb High {C}
!     26.7,                    !- Chilled Water Reset Outdoor Dry-Bulb High {C}
!     ,                        !- Chilled Water Primary Pump Type
!     ,                        !- Chilled Water Secondary Pump Type
!     ,                        !- Condenser Water Pump Type
!     ,                        !- Chilled Water Supply Side Bypass Pipe
!     ,                        !- Chilled Water Demand Side Bypass Pipe
!     ,                        !- Condenser Water Supply Side Bypass Pipe
!     ,                        !- Condenser Water Demand Side Bypass Pipe
!     ,                        !- Fluid Type
!     ,                        !- Loop Design Delta Temperature {deltaC}
!     7.22;                    !- Minimum Outdoor Dry Bulb Temperature {C}
! 
!   HVACTemplate:Plant:Chiller,
!     Main Chiller,            !- Name
!     ElectricReciprocatingChiller,  !- Chiller Type
!     autosize,                !- Capacity {W}
!     3.2,                     !- Nominal COP {W/W}
!     WaterCooled,             !- Condenser Type
!     1,                       !- Priority
!     ;                        !- Sizing Factor
! 
!   HVACTemplate:Plant:Tower,
!     Main Tower,              !- Name
!     SingleSpeed,             !- Tower Type
!     autosize,                !- High Speed Nominal Capacity {W}
!     autosize,                !- High Speed Fan Power {W}
!     autosize,                !- Low Speed Nominal Capacity {W}
!     autosize,                !- Low Speed Fan Power {W}
!     autosize,                !- Free Convection Capacity {W}
!     1,                       !- Priority
!     ;                        !- Sizing Factor
! 
!   HVACTemplate:Plant:HotWaterLoop,
!     Hot Water Loop,          !- Name
!     ,                        !- Pump Schedule Name
!     INTERMITTENT,            !- Pump Control Type
!     Default,                 !- Hot Water Plant Operation Scheme Type
!     ,                        !- Hot Water Plant Equipment Operation Schemes Name
!     ,                        !- Hot Water Setpoint Schedule Name
!     82,                      !- Hot Water Design Setpoint {C}
!     ConstantFlow,            !- Hot Water Pump Configuration
!     179352,                  !- Hot Water Pump Rated Head {Pa}
!     OutdoorAirTemperatureReset,  !- Hot Water Setpoint Reset Type
!     82.2,                    !- Hot Water Setpoint at Outdoor Dry-Bulb Low {C}
!     -6.7,                    !- Hot Water Reset Outdoor Dry-Bulb Low {C}
!     65.6,                    !- Hot Water Setpoint at Outdoor Dry-Bulb High {C}
!     10;                      !- Hot Water Reset Outdoor Dry-Bulb High {C}
! 
!   HVACTemplate:Plant:Boiler,
!     Main Boiler,             !- Name
!     HotWaterBoiler,          !- Boiler Type
!     autosize,                !- Capacity {W}
!     0.8,                     !- Efficiency
!     NaturalGas,              !- Fuel Type
!     1,                       !- Priority
!     ;                        !- Sizing Factor

  Output:Variable,*,Site Outdoor Air Drybulb Temperature,hourly;
  Output:Variable,*,Zone Mean Air Temperature,Hourly;
  Output:Meter,Electricity:Facility,Monthly;
  Output:Meter,NaturalGas:Facility,Monthly;
  Output:Meter,Electricity:Facility,RunPeriod;
  Output:Meter,NaturalGas:Facility,RunPeriod;
  Output:Table:SummaryReports, AllSummary;
! 
! -------------------------------------------------------------
! New objects created from ExpandObjects
! -------------------------------------------------------------
! 

ThermostatSetpoint:DualSetpoint,
  All Zones Dual SP Control,                               !- Name
  Htg-SetP-Sch,                                            !- Heating Setpoint Temperature Schedule Name
  Clg-SetP-Sch;                                            !- Cooling Setpoint Temperature Schedule Name

ScheduleTypeLimits,
  HVACTemplate Any Number;                                 !- Name

Schedule:Compact,
  HVACTemplate-Always 4,                                   !- Name
  HVACTemplate Any Number,                                 !- Schedule Type Limits Name
  Through: 12/31,                                          !- Field 1
  For: AllDays,                                            !- Field 2
  Until: 24:00,                                            !- Field 3
  4;                                                       !- Field 4

ZoneControl:Thermostat,
  Floor_1_AHU1 Thermostat,                                 !- Name
  Floor_1_AHU1,                                            !- Zone or ZoneList Name
  HVACTemplate-Always 4,                                   !- Control Type Schedule Name
  ThermostatSetpoint:DualSetpoint,                         !- Control Object Type
  All Zones Dual SP Control;                               !- Control Name

DesignSpecification:OutdoorAir,
  SZ DSOA Floor_1_AHU1,                                    !- Name
  flow/person,                                             !- Outdoor Air Method
  0.00944,                                                 !- Outdoor Air Flow per Person {m3/s}
  0.0,                                                     !- Outdoor Air Flow per Zone Floor Area {m3/s-m2}
  0.0;                                                     !- Outdoor Air Flow per Zone {m3/s}

Sizing:Zone,
  Floor_1_AHU1,                                            !- Zone or ZoneList Name
  SupplyAirTemperature,                                    !- Zone Cooling Design Supply Air Temperature Input Method
  12.8,                                                    !- Zone Cooling Design Supply Air Temperature {C}
  11.11,                                                   !- Zone Cooling Design Supply Air Temperature Difference {delta C}
  SupplyAirTemperature,                                    !- Zone Heating Design Supply Air Temperature Input Method
  50.0,                                                    !- Zone Heating Design Supply Air Temperature {C}
  ,                                                        !- Zone Heating Design Supply Air Temperature Difference {delta C}
  0.008,                                                   !- Zone Cooling Design Supply Air Humidity Ratio {kg-H20/kg-air}
  0.008,                                                   !- Zone Heating Design Supply Air Humidity Ratio {kg-H2O/kg-air}
  SZ DSOA Floor_1_AHU1,                                    !- Design Specification Outdoor Air Object Name
  ,                                                        !- Zone Heating Sizing Factor
  ,                                                        !- Zone Cooling Sizing Factor
  DesignDay,                                               !- Cooling Design Air Flow Method
  0,                                                       !- Cooling Design Air Flow Rate {m3/s}
  ,                                                        !- Cooling Minimum Air Flow per Zone Floor Area {m3/s-m2}
  ,                                                        !- Cooling Minimum Air Flow {m3/s}
  0,                                                       !- Cooling Minimum Air Flow Fraction {}
  DesignDay,                                               !- Heating Design Air Flow Method
  0,                                                       !- Heating Design Air Flow Rate {m3/s}
  ,                                                        !- Heating Maximum Air Flow per Zone Floor Area {m3/s-m2}
  ,                                                        !- Heating Maximum Air Flow {m3/s}
  0,                                                       !- Heating Maximum Air Flow Fraction {}
  SZ DSZAD Floor_1_AHU1;                                   !- Design Specification Zone Air Distribution Object Name

DesignSpecification:ZoneAirDistribution,
  SZ DSZAD Floor_1_AHU1,                                   !- Name
  1,                                                       !- Zone Air Distribution Effectiveness in Cooling Mode {}
  1;                                                       !- Zone Air Distribution Effectiveness in Heating Mode {}

ZoneHVAC:EquipmentConnections,
  Floor_1_AHU1,                                            !- Zone Name
  Floor_1_AHU1 Equipment,                                  !- Zone Conditioning Equipment List Name
  Floor_1_AHU1 Supply Inlet,                               !- Zone Air Inlet Node or NodeList Name
  ,                                                        !- Zone Air Exhaust Node or NodeList Name
  Floor_1_AHU1 Zone Air Node,                              !- Zone Air Node Name
  Floor_1_AHU1 Return Outlet;                              !- Zone Return Air Node Name

ZoneHVAC:EquipmentList,
  Floor_1_AHU1 Equipment,                                  !- Name
  SequentialLoad,                                          !- Load Distribution Scheme
  ZoneHVAC:AirDistributionUnit,                            !- Zone Equipment Object Type
  Floor_1_AHU1 ATU,                                        !- Zone Equipment Name
  1,                                                       !- Zone Equipment Cooling Sequence
  1,                                                       !- Zone Equipment Heating or No-Load Sequence
  ,                                                        !- Zone Equipment Sequential Cooling Fraction Schedule Name
  ;                                                        !- Zone Equipment Sequential Heating Fraction Schedule Name

ZoneHVAC:AirDistributionUnit,
  Floor_1_AHU1 ATU,                                        !- Name
  Floor_1_AHU1 Supply Inlet,                               !- Air Distribution Unit Outlet Node Name
  AirTerminal:SingleDuct:VAV:Reheat,                       !- Air Terminal Object Type
  Floor_1_AHU1 VAV Reheat;                                 !- Air Terminal Name

Schedule:Compact,
  VAV Min Flow Frac Sch,
  Fraction,
  Through: 1/31,
  For: AllDays,
  Until: 24:00,
  0.05,
  Through: 2/28,
  For: AllDays,
  Until: 24:00,
  0.6,
  Through: 3/31,
  For: AllDays,
  Until: 24:00,
  0.36,
  Through: 4/30,
  For: AllDays,
  Until: 24:00,
  0.36,
  Through: 5/31,
  For: AllDays,
  Until: 24:00,
  0.36,
  Through: 6/30,
  For: AllDays,
  Until: 24:00,
  0.48,
  Through: 7/31,
  For: AllDays,
  Until: 24:00,
  0.48,
  Through: 8/31,
  For: AllDays,
  Until: 24:00,
  0.28,
  Through: 9/30,
  For: AllDays,
  Until: 24:00,
  0.32,
  Through: 10/31,
  For: AllDays,
  Until: 24:00,
  0.14,
  Through: 11/30,
  For: AllDays,
  Until: 24:00,
  0.06,
  Through: 12/31,
  For: AllDays,
  Until: 24:00,
  0.05;

AirTerminal:SingleDuct:VAV:Reheat,
  Floor_1_AHU1 VAV Reheat,                                 !- Name
  ,                                                        !- Availability Schedule Name
  Floor_1_AHU1 Damper Outlet,                              !- Damper Air Outlet Node Name
  Floor_1_AHU1 Zone Equip Inlet,                           !- Air Inlet Node Name
  autosize,                                                !- Maximum air flow rate {m3/s}
  Scheduled,                                                !- Zone Minimum Air Flow Input Method
  ,                                                     !- Constant Minimum Air Flow Fraction
  ,                                                        !- Fixed Minimum Air Flow Rate
  VAV Min Flow Frac Sch,                                                        !- Minimum Air Flow Fraction Schedule Name
  Coil:Heating:Water,                                      !- Reheat Coil Object Type
  Floor_1_AHU1 Reheat Coil,                                !- Reheat Coil Name
  autosize,                                                !- Maximum Hot Water or Steam Flow Rate {m3/s}
  0,                                                       !- Minimum Hot Water or Steam Flow Rate {m3/s}
  Floor_1_AHU1 Supply Inlet,                               !- Air Outlet Node Name
  0.001,                                                   !- Convergence Tolerance
  Reverse,                                                 !- Damper Heating Action
  ,                                                        !- Maximum Flow per Zone Floor Area During Reheat
  ,                                                        !- Maximum Flow Fraction During Reheat
  ,                                                        !- Maximum Reheat Air Temperature
  ;                                                        !- Design Specification Outdoor Air Object Name

Coil:Heating:Water,
  Floor_1_AHU1 Reheat Coil,                                !- Name
  ,                                                        !- Availability Schedule Name
  autosize,                                                !- U-Factor Times Area Value {W/K}
  autosize,                                                !- Maximum Water Flow Rate {m3/s}
  Floor_1_AHU1 Reheat Coil HW Inlet,                       !- Water Inlet Node Name
  Floor_1_AHU1 Reheat Coil HW Outlet,                      !- Water Outlet Node Name
  Floor_1_AHU1 Damper Outlet,                              !- Air Inlet Node Name
  Floor_1_AHU1 Supply Inlet,                               !- Air Outlet Node Name
  UFactorTimesAreaAndDesignWaterFlowRate,                  !- Performance Input Method
  autosize,                                                !- Rated Capacity
  82.2,                                                    !- Rated Inlet Water Temperature
  16.6,                                                    !- Rated Inlet Air Temperature
  71.1,                                                    !- Rated Outlet Water Temperature
  32.2,                                                    !- Rated Outlet Air Temperature
  0.5;                                                     !- Rated Ratio for Air and Water Convection

Branch,
  Floor_1_AHU1 Reheat Coil HW Branch,                      !- Name
  ,                                                        !- Pressure Drop Curve Name
  Coil:Heating:Water,                                      !- Component Object Type
  Floor_1_AHU1 Reheat Coil,                                !- Component Name
  Floor_1_AHU1 Reheat Coil HW Inlet,                       !- Component Inlet Node Name
  Floor_1_AHU1 Reheat Coil HW Outlet;                      !- Component Outlet Node Name

ZoneControl:Thermostat,
  Floor_2_AHU1 Thermostat,                                 !- Name
  Floor_2_AHU1,                                            !- Zone or ZoneList Name
  HVACTemplate-Always 4,                                   !- Control Type Schedule Name
  ThermostatSetpoint:DualSetpoint,                         !- Control Object Type
  All Zones Dual SP Control;                               !- Control Name

DesignSpecification:OutdoorAir,
  SZ DSOA Floor_2_AHU1,                                    !- Name
  flow/person,                                             !- Outdoor Air Method
  0.00944,                                                 !- Outdoor Air Flow per Person {m3/s}
  0.0,                                                     !- Outdoor Air Flow per Zone Floor Area {m3/s-m2}
  0.0;                                                     !- Outdoor Air Flow per Zone {m3/s}

Sizing:Zone,
  Floor_2_AHU1,                                            !- Zone or ZoneList Name
  SupplyAirTemperature,                                    !- Zone Cooling Design Supply Air Temperature Input Method
  12.8,                                                    !- Zone Cooling Design Supply Air Temperature {C}
  11.11,                                                   !- Zone Cooling Design Supply Air Temperature Difference {delta C}
  SupplyAirTemperature,                                    !- Zone Heating Design Supply Air Temperature Input Method
  50.0,                                                    !- Zone Heating Design Supply Air Temperature {C}
  ,                                                        !- Zone Heating Design Supply Air Temperature Difference {delta C}
  0.008,                                                   !- Zone Cooling Design Supply Air Humidity Ratio {kg-H20/kg-air}
  0.008,                                                   !- Zone Heating Design Supply Air Humidity Ratio {kg-H2O/kg-air}
  SZ DSOA Floor_2_AHU1,                                    !- Design Specification Outdoor Air Object Name
  ,                                                        !- Zone Heating Sizing Factor
  ,                                                        !- Zone Cooling Sizing Factor
  DesignDay,                                               !- Cooling Design Air Flow Method
  0,                                                       !- Cooling Design Air Flow Rate {m3/s}
  ,                                                        !- Cooling Minimum Air Flow per Zone Floor Area {m3/s-m2}
  ,                                                        !- Cooling Minimum Air Flow {m3/s}
  0,                                                       !- Cooling Minimum Air Flow Fraction {}
  DesignDay,                                               !- Heating Design Air Flow Method
  0,                                                       !- Heating Design Air Flow Rate {m3/s}
  ,                                                        !- Heating Maximum Air Flow per Zone Floor Area {m3/s-m2}
  ,                                                        !- Heating Maximum Air Flow {m3/s}
  0,                                                       !- Heating Maximum Air Flow Fraction {}
  SZ DSZAD Floor_2_AHU1;                                   !- Design Specification Zone Air Distribution Object Name

DesignSpecification:ZoneAirDistribution,
  SZ DSZAD Floor_2_AHU1,                                   !- Name
  1,                                                       !- Zone Air Distribution Effectiveness in Cooling Mode {}
  1;                                                       !- Zone Air Distribution Effectiveness in Heating Mode {}

ZoneHVAC:EquipmentConnections,
  Floor_2_AHU1,                                            !- Zone Name
  Floor_2_AHU1 Equipment,                                  !- Zone Conditioning Equipment List Name
  Floor_2_AHU1 Supply Inlet,                               !- Zone Air Inlet Node or NodeList Name
  ,                                                        !- Zone Air Exhaust Node or NodeList Name
  Floor_2_AHU1 Zone Air Node,                              !- Zone Air Node Name
  Floor_2_AHU1 Return Outlet;                              !- Zone Return Air Node Name

ZoneHVAC:EquipmentList,
  Floor_2_AHU1 Equipment,                                  !- Name
  SequentialLoad,                                          !- Load Distribution Scheme
  ZoneHVAC:AirDistributionUnit,                            !- Zone Equipment Object Type
  Floor_2_AHU1 ATU,                                        !- Zone Equipment Name
  1,                                                       !- Zone Equipment Cooling Sequence
  1,                                                       !- Zone Equipment Heating or No-Load Sequence
  ,                                                        !- Zone Equipment Sequential Cooling Fraction Schedule Name
  ;                                                        !- Zone Equipment Sequential Heating Fraction Schedule Name

ZoneHVAC:AirDistributionUnit,
  Floor_2_AHU1 ATU,                                        !- Name
  Floor_2_AHU1 Supply Inlet,                               !- Air Distribution Unit Outlet Node Name
  AirTerminal:SingleDuct:VAV:Reheat,                       !- Air Terminal Object Type
  Floor_2_AHU1 VAV Reheat;                                 !- Air Terminal Name

AirTerminal:SingleDuct:VAV:Reheat,
  Floor_2_AHU1 VAV Reheat,                                 !- Name
  ,                                                        !- Availability Schedule Name
  Floor_2_AHU1 Damper Outlet,                              !- Damper Air Outlet Node Name
  Floor_2_AHU1 Zone Equip Inlet,                           !- Air Inlet Node Name
  autosize,                                                !- Maximum air flow rate {m3/s}
  Scheduled,                                                !- Zone Minimum Air Flow Input Method
  ,                                                     !- Constant Minimum Air Flow Fraction
  ,                                                        !- Fixed Minimum Air Flow Rate
  VAV Min Flow Frac Sch,                                                        !- Minimum Air Flow Fraction Schedule Name
  Coil:Heating:Water,                                      !- Reheat Coil Object Type
  Floor_2_AHU1 Reheat Coil,                                !- Reheat Coil Name
  autosize,                                                !- Maximum Hot Water or Steam Flow Rate {m3/s}
  0,                                                       !- Minimum Hot Water or Steam Flow Rate {m3/s}
  Floor_2_AHU1 Supply Inlet,                               !- Air Outlet Node Name
  0.001,                                                   !- Convergence Tolerance
  Reverse,                                                 !- Damper Heating Action
  ,                                                        !- Maximum Flow per Zone Floor Area During Reheat
  ,                                                        !- Maximum Flow Fraction During Reheat
  ,                                                        !- Maximum Reheat Air Temperature
  ;                                                        !- Design Specification Outdoor Air Object Name

Coil:Heating:Water,
  Floor_2_AHU1 Reheat Coil,                                !- Name
  ,                                                        !- Availability Schedule Name
  autosize,                                                !- U-Factor Times Area Value {W/K}
  autosize,                                                !- Maximum Water Flow Rate {m3/s}
  Floor_2_AHU1 Reheat Coil HW Inlet,                       !- Water Inlet Node Name
  Floor_2_AHU1 Reheat Coil HW Outlet,                      !- Water Outlet Node Name
  Floor_2_AHU1 Damper Outlet,                              !- Air Inlet Node Name
  Floor_2_AHU1 Supply Inlet,                               !- Air Outlet Node Name
  UFactorTimesAreaAndDesignWaterFlowRate,                  !- Performance Input Method
  autosize,                                                !- Rated Capacity
  82.2,                                                    !- Rated Inlet Water Temperature
  16.6,                                                    !- Rated Inlet Air Temperature
  71.1,                                                    !- Rated Outlet Water Temperature
  32.2,                                                    !- Rated Outlet Air Temperature
  0.5;                                                     !- Rated Ratio for Air and Water Convection

Branch,
  Floor_2_AHU1 Reheat Coil HW Branch,                      !- Name
  ,                                                        !- Pressure Drop Curve Name
  Coil:Heating:Water,                                      !- Component Object Type
  Floor_2_AHU1 Reheat Coil,                                !- Component Name
  Floor_2_AHU1 Reheat Coil HW Inlet,                       !- Component Inlet Node Name
  Floor_2_AHU1 Reheat Coil HW Outlet;                      !- Component Outlet Node Name

ZoneControl:Thermostat,
  Floor_3_AHU1 Thermostat,                                 !- Name
  Floor_3_AHU1,                                            !- Zone or ZoneList Name
  HVACTemplate-Always 4,                                   !- Control Type Schedule Name
  ThermostatSetpoint:DualSetpoint,                         !- Control Object Type
  All Zones Dual SP Control;                               !- Control Name

DesignSpecification:OutdoorAir,
  SZ DSOA Floor_3_AHU1,                                    !- Name
  flow/person,                                             !- Outdoor Air Method
  0.00944,                                                 !- Outdoor Air Flow per Person {m3/s}
  0.0,                                                     !- Outdoor Air Flow per Zone Floor Area {m3/s-m2}
  0.0;                                                     !- Outdoor Air Flow per Zone {m3/s}

Sizing:Zone,
  Floor_3_AHU1,                                            !- Zone or ZoneList Name
  SupplyAirTemperature,                                    !- Zone Cooling Design Supply Air Temperature Input Method
  12.8,                                                    !- Zone Cooling Design Supply Air Temperature {C}
  11.11,                                                   !- Zone Cooling Design Supply Air Temperature Difference {delta C}
  SupplyAirTemperature,                                    !- Zone Heating Design Supply Air Temperature Input Method
  50.0,                                                    !- Zone Heating Design Supply Air Temperature {C}
  ,                                                        !- Zone Heating Design Supply Air Temperature Difference {delta C}
  0.008,                                                   !- Zone Cooling Design Supply Air Humidity Ratio {kg-H20/kg-air}
  0.008,                                                   !- Zone Heating Design Supply Air Humidity Ratio {kg-H2O/kg-air}
  SZ DSOA Floor_3_AHU1,                                    !- Design Specification Outdoor Air Object Name
  ,                                                        !- Zone Heating Sizing Factor
  ,                                                        !- Zone Cooling Sizing Factor
  DesignDay,                                               !- Cooling Design Air Flow Method
  0,                                                       !- Cooling Design Air Flow Rate {m3/s}
  ,                                                        !- Cooling Minimum Air Flow per Zone Floor Area {m3/s-m2}
  ,                                                        !- Cooling Minimum Air Flow {m3/s}
  0,                                                       !- Cooling Minimum Air Flow Fraction {}
  DesignDay,                                               !- Heating Design Air Flow Method
  0,                                                       !- Heating Design Air Flow Rate {m3/s}
  ,                                                        !- Heating Maximum Air Flow per Zone Floor Area {m3/s-m2}
  ,                                                        !- Heating Maximum Air Flow {m3/s}
  0,                                                       !- Heating Maximum Air Flow Fraction {}
  SZ DSZAD Floor_3_AHU1;                                   !- Design Specification Zone Air Distribution Object Name

DesignSpecification:ZoneAirDistribution,
  SZ DSZAD Floor_3_AHU1,                                   !- Name
  1,                                                       !- Zone Air Distribution Effectiveness in Cooling Mode {}
  1;                                                       !- Zone Air Distribution Effectiveness in Heating Mode {}

ZoneHVAC:EquipmentConnections,
  Floor_3_AHU1,                                            !- Zone Name
  Floor_3_AHU1 Equipment,                                  !- Zone Conditioning Equipment List Name
  Floor_3_AHU1 Supply Inlet,                               !- Zone Air Inlet Node or NodeList Name
  ,                                                        !- Zone Air Exhaust Node or NodeList Name
  Floor_3_AHU1 Zone Air Node,                              !- Zone Air Node Name
  Floor_3_AHU1 Return Outlet;                              !- Zone Return Air Node Name

ZoneHVAC:EquipmentList,
  Floor_3_AHU1 Equipment,                                  !- Name
  SequentialLoad,                                          !- Load Distribution Scheme
  ZoneHVAC:AirDistributionUnit,                            !- Zone Equipment Object Type
  Floor_3_AHU1 ATU,                                        !- Zone Equipment Name
  1,                                                       !- Zone Equipment Cooling Sequence
  1,                                                       !- Zone Equipment Heating or No-Load Sequence
  ,                                                        !- Zone Equipment Sequential Cooling Fraction Schedule Name
  ;                                                        !- Zone Equipment Sequential Heating Fraction Schedule Name

ZoneHVAC:AirDistributionUnit,
  Floor_3_AHU1 ATU,                                        !- Name
  Floor_3_AHU1 Supply Inlet,                               !- Air Distribution Unit Outlet Node Name
  AirTerminal:SingleDuct:VAV:Reheat,                       !- Air Terminal Object Type
  Floor_3_AHU1 VAV Reheat;                                 !- Air Terminal Name

AirTerminal:SingleDuct:VAV:Reheat,
  Floor_3_AHU1 VAV Reheat,                                 !- Name
  ,                                                        !- Availability Schedule Name
  Floor_3_AHU1 Damper Outlet,                              !- Damper Air Outlet Node Name
  Floor_3_AHU1 Zone Equip Inlet,                           !- Air Inlet Node Name
  autosize,                                                !- Maximum air flow rate {m3/s}
  Scheduled,                                                !- Zone Minimum Air Flow Input Method
  ,                                                     !- Constant Minimum Air Flow Fraction
  ,                                                        !- Fixed Minimum Air Flow Rate
  VAV Min Flow Frac Sch,                                                        !- Minimum Air Flow Fraction Schedule Name
  Coil:Heating:Water,                                      !- Reheat Coil Object Type
  Floor_3_AHU1 Reheat Coil,                                !- Reheat Coil Name
  autosize,                                                !- Maximum Hot Water or Steam Flow Rate {m3/s}
  0,                                                       !- Minimum Hot Water or Steam Flow Rate {m3/s}
  Floor_3_AHU1 Supply Inlet,                               !- Air Outlet Node Name
  0.001,                                                   !- Convergence Tolerance
  Reverse,                                                 !- Damper Heating Action
  ,                                                        !- Maximum Flow per Zone Floor Area During Reheat
  ,                                                        !- Maximum Flow Fraction During Reheat
  ,                                                        !- Maximum Reheat Air Temperature
  ;                                                        !- Design Specification Outdoor Air Object Name

Coil:Heating:Water,
  Floor_3_AHU1 Reheat Coil,                                !- Name
  ,                                                        !- Availability Schedule Name
  autosize,                                                !- U-Factor Times Area Value {W/K}
  autosize,                                                !- Maximum Water Flow Rate {m3/s}
  Floor_3_AHU1 Reheat Coil HW Inlet,                       !- Water Inlet Node Name
  Floor_3_AHU1 Reheat Coil HW Outlet,                      !- Water Outlet Node Name
  Floor_3_AHU1 Damper Outlet,                              !- Air Inlet Node Name
  Floor_3_AHU1 Supply Inlet,                               !- Air Outlet Node Name
  UFactorTimesAreaAndDesignWaterFlowRate,                  !- Performance Input Method
  autosize,                                                !- Rated Capacity
  82.2,                                                    !- Rated Inlet Water Temperature
  16.6,                                                    !- Rated Inlet Air Temperature
  71.1,                                                    !- Rated Outlet Water Temperature
  32.2,                                                    !- Rated Outlet Air Temperature
  0.5;                                                     !- Rated Ratio for Air and Water Convection

Branch,
  Floor_3_AHU1 Reheat Coil HW Branch,                      !- Name
  ,                                                        !- Pressure Drop Curve Name
  Coil:Heating:Water,                                      !- Component Object Type
  Floor_3_AHU1 Reheat Coil,                                !- Component Name
  Floor_3_AHU1 Reheat Coil HW Inlet,                       !- Component Inlet Node Name
  Floor_3_AHU1 Reheat Coil HW Outlet;                      !- Component Outlet Node Name

ZoneControl:Thermostat,
  Floor_4_AHU1 Thermostat,                                 !- Name
  Floor_4_AHU1,                                            !- Zone or ZoneList Name
  HVACTemplate-Always 4,                                   !- Control Type Schedule Name
  ThermostatSetpoint:DualSetpoint,                         !- Control Object Type
  All Zones Dual SP Control;                               !- Control Name

DesignSpecification:OutdoorAir,
  SZ DSOA Floor_4_AHU1,                                    !- Name
  flow/person,                                             !- Outdoor Air Method
  0.00944,                                                 !- Outdoor Air Flow per Person {m3/s}
  0.0,                                                     !- Outdoor Air Flow per Zone Floor Area {m3/s-m2}
  0.0;                                                     !- Outdoor Air Flow per Zone {m3/s}

Sizing:Zone,
  Floor_4_AHU1,                                            !- Zone or ZoneList Name
  SupplyAirTemperature,                                    !- Zone Cooling Design Supply Air Temperature Input Method
  12.8,                                                    !- Zone Cooling Design Supply Air Temperature {C}
  11.11,                                                   !- Zone Cooling Design Supply Air Temperature Difference {delta C}
  SupplyAirTemperature,                                    !- Zone Heating Design Supply Air Temperature Input Method
  50.0,                                                    !- Zone Heating Design Supply Air Temperature {C}
  ,                                                        !- Zone Heating Design Supply Air Temperature Difference {delta C}
  0.008,                                                   !- Zone Cooling Design Supply Air Humidity Ratio {kg-H20/kg-air}
  0.008,                                                   !- Zone Heating Design Supply Air Humidity Ratio {kg-H2O/kg-air}
  SZ DSOA Floor_4_AHU1,                                    !- Design Specification Outdoor Air Object Name
  ,                                                        !- Zone Heating Sizing Factor
  ,                                                        !- Zone Cooling Sizing Factor
  DesignDay,                                               !- Cooling Design Air Flow Method
  0,                                                       !- Cooling Design Air Flow Rate {m3/s}
  ,                                                        !- Cooling Minimum Air Flow per Zone Floor Area {m3/s-m2}
  ,                                                        !- Cooling Minimum Air Flow {m3/s}
  0,                                                       !- Cooling Minimum Air Flow Fraction {}
  DesignDay,                                               !- Heating Design Air Flow Method
  0,                                                       !- Heating Design Air Flow Rate {m3/s}
  ,                                                        !- Heating Maximum Air Flow per Zone Floor Area {m3/s-m2}
  ,                                                        !- Heating Maximum Air Flow {m3/s}
  0,                                                       !- Heating Maximum Air Flow Fraction {}
  SZ DSZAD Floor_4_AHU1;                                   !- Design Specification Zone Air Distribution Object Name

DesignSpecification:ZoneAirDistribution,
  SZ DSZAD Floor_4_AHU1,                                   !- Name
  1,                                                       !- Zone Air Distribution Effectiveness in Cooling Mode {}
  1;                                                       !- Zone Air Distribution Effectiveness in Heating Mode {}

ZoneHVAC:EquipmentConnections,
  Floor_4_AHU1,                                            !- Zone Name
  Floor_4_AHU1 Equipment,                                  !- Zone Conditioning Equipment List Name
  Floor_4_AHU1 Supply Inlet,                               !- Zone Air Inlet Node or NodeList Name
  ,                                                        !- Zone Air Exhaust Node or NodeList Name
  Floor_4_AHU1 Zone Air Node,                              !- Zone Air Node Name
  Floor_4_AHU1 Return Outlet;                              !- Zone Return Air Node Name

ZoneHVAC:EquipmentList,
  Floor_4_AHU1 Equipment,                                  !- Name
  SequentialLoad,                                          !- Load Distribution Scheme
  ZoneHVAC:AirDistributionUnit,                            !- Zone Equipment Object Type
  Floor_4_AHU1 ATU,                                        !- Zone Equipment Name
  1,                                                       !- Zone Equipment Cooling Sequence
  1,                                                       !- Zone Equipment Heating or No-Load Sequence
  ,                                                        !- Zone Equipment Sequential Cooling Fraction Schedule Name
  ;                                                        !- Zone Equipment Sequential Heating Fraction Schedule Name

ZoneHVAC:AirDistributionUnit,
  Floor_4_AHU1 ATU,                                        !- Name
  Floor_4_AHU1 Supply Inlet,                               !- Air Distribution Unit Outlet Node Name
  AirTerminal:SingleDuct:VAV:Reheat,                       !- Air Terminal Object Type
  Floor_4_AHU1 VAV Reheat;                                 !- Air Terminal Name

AirTerminal:SingleDuct:VAV:Reheat,
  Floor_4_AHU1 VAV Reheat,                                 !- Name
  ,                                                        !- Availability Schedule Name
  Floor_4_AHU1 Damper Outlet,                              !- Damper Air Outlet Node Name
  Floor_4_AHU1 Zone Equip Inlet,                           !- Air Inlet Node Name
  autosize,                                                !- Maximum air flow rate {m3/s}
  Scheduled,                                                !- Zone Minimum Air Flow Input Method
  ,                                                     !- Constant Minimum Air Flow Fraction
  ,                                                        !- Fixed Minimum Air Flow Rate
  VAV Min Flow Frac Sch,                                                        !- Minimum Air Flow Fraction Schedule Name
  Coil:Heating:Water,                                      !- Reheat Coil Object Type
  Floor_4_AHU1 Reheat Coil,                                !- Reheat Coil Name
  autosize,                                                !- Maximum Hot Water or Steam Flow Rate {m3/s}
  0,                                                       !- Minimum Hot Water or Steam Flow Rate {m3/s}
  Floor_4_AHU1 Supply Inlet,                               !- Air Outlet Node Name
  0.001,                                                   !- Convergence Tolerance
  Reverse,                                                 !- Damper Heating Action
  ,                                                        !- Maximum Flow per Zone Floor Area During Reheat
  ,                                                        !- Maximum Flow Fraction During Reheat
  ,                                                        !- Maximum Reheat Air Temperature
  ;                                                        !- Design Specification Outdoor Air Object Name

Coil:Heating:Water,
  Floor_4_AHU1 Reheat Coil,                                !- Name
  ,                                                        !- Availability Schedule Name
  autosize,                                                !- U-Factor Times Area Value {W/K}
  autosize,                                                !- Maximum Water Flow Rate {m3/s}
  Floor_4_AHU1 Reheat Coil HW Inlet,                       !- Water Inlet Node Name
  Floor_4_AHU1 Reheat Coil HW Outlet,                      !- Water Outlet Node Name
  Floor_4_AHU1 Damper Outlet,                              !- Air Inlet Node Name
  Floor_4_AHU1 Supply Inlet,                               !- Air Outlet Node Name
  UFactorTimesAreaAndDesignWaterFlowRate,                  !- Performance Input Method
  autosize,                                                !- Rated Capacity
  82.2,                                                    !- Rated Inlet Water Temperature
  16.6,                                                    !- Rated Inlet Air Temperature
  71.1,                                                    !- Rated Outlet Water Temperature
  32.2,                                                    !- Rated Outlet Air Temperature
  0.5;                                                     !- Rated Ratio for Air and Water Convection

Branch,
  Floor_4_AHU1 Reheat Coil HW Branch,                      !- Name
  ,                                                        !- Pressure Drop Curve Name
  Coil:Heating:Water,                                      !- Component Object Type
  Floor_4_AHU1 Reheat Coil,                                !- Component Name
  Floor_4_AHU1 Reheat Coil HW Inlet,                       !- Component Inlet Node Name
  Floor_4_AHU1 Reheat Coil HW Outlet;                      !- Component Outlet Node Name

ZoneControl:Thermostat,
  Floor_5_AHU1 Thermostat,                                 !- Name
  Floor_5_AHU1,                                            !- Zone or ZoneList Name
  HVACTemplate-Always 4,                                   !- Control Type Schedule Name
  ThermostatSetpoint:DualSetpoint,                         !- Control Object Type
  All Zones Dual SP Control;                               !- Control Name

DesignSpecification:OutdoorAir,
  SZ DSOA Floor_5_AHU1,                                    !- Name
  flow/person,                                             !- Outdoor Air Method
  0.00944,                                                 !- Outdoor Air Flow per Person {m3/s}
  0.0,                                                     !- Outdoor Air Flow per Zone Floor Area {m3/s-m2}
  0.0;                                                     !- Outdoor Air Flow per Zone {m3/s}

Sizing:Zone,
  Floor_5_AHU1,                                            !- Zone or ZoneList Name
  SupplyAirTemperature,                                    !- Zone Cooling Design Supply Air Temperature Input Method
  12.8,                                                    !- Zone Cooling Design Supply Air Temperature {C}
  11.11,                                                   !- Zone Cooling Design Supply Air Temperature Difference {delta C}
  SupplyAirTemperature,                                    !- Zone Heating Design Supply Air Temperature Input Method
  50.0,                                                    !- Zone Heating Design Supply Air Temperature {C}
  ,                                                        !- Zone Heating Design Supply Air Temperature Difference {delta C}
  0.008,                                                   !- Zone Cooling Design Supply Air Humidity Ratio {kg-H20/kg-air}
  0.008,                                                   !- Zone Heating Design Supply Air Humidity Ratio {kg-H2O/kg-air}
  SZ DSOA Floor_5_AHU1,                                    !- Design Specification Outdoor Air Object Name
  ,                                                        !- Zone Heating Sizing Factor
  ,                                                        !- Zone Cooling Sizing Factor
  DesignDay,                                               !- Cooling Design Air Flow Method
  0,                                                       !- Cooling Design Air Flow Rate {m3/s}
  ,                                                        !- Cooling Minimum Air Flow per Zone Floor Area {m3/s-m2}
  ,                                                        !- Cooling Minimum Air Flow {m3/s}
  0,                                                       !- Cooling Minimum Air Flow Fraction {}
  DesignDay,                                               !- Heating Design Air Flow Method
  0,                                                       !- Heating Design Air Flow Rate {m3/s}
  ,                                                        !- Heating Maximum Air Flow per Zone Floor Area {m3/s-m2}
  ,                                                        !- Heating Maximum Air Flow {m3/s}
  0,                                                       !- Heating Maximum Air Flow Fraction {}
  SZ DSZAD Floor_5_AHU1;                                   !- Design Specification Zone Air Distribution Object Name

DesignSpecification:ZoneAirDistribution,
  SZ DSZAD Floor_5_AHU1,                                   !- Name
  1,                                                       !- Zone Air Distribution Effectiveness in Cooling Mode {}
  1;                                                       !- Zone Air Distribution Effectiveness in Heating Mode {}

ZoneHVAC:EquipmentConnections,
  Floor_5_AHU1,                                            !- Zone Name
  Floor_5_AHU1 Equipment,                                  !- Zone Conditioning Equipment List Name
  Floor_5_AHU1 Supply Inlet,                               !- Zone Air Inlet Node or NodeList Name
  ,                                                        !- Zone Air Exhaust Node or NodeList Name
  Floor_5_AHU1 Zone Air Node,                              !- Zone Air Node Name
  Floor_5_AHU1 Return Outlet;                              !- Zone Return Air Node Name

ZoneHVAC:EquipmentList,
  Floor_5_AHU1 Equipment,                                  !- Name
  SequentialLoad,                                          !- Load Distribution Scheme
  ZoneHVAC:AirDistributionUnit,                            !- Zone Equipment Object Type
  Floor_5_AHU1 ATU,                                        !- Zone Equipment Name
  1,                                                       !- Zone Equipment Cooling Sequence
  1,                                                       !- Zone Equipment Heating or No-Load Sequence
  ,                                                        !- Zone Equipment Sequential Cooling Fraction Schedule Name
  ;                                                        !- Zone Equipment Sequential Heating Fraction Schedule Name

ZoneHVAC:AirDistributionUnit,
  Floor_5_AHU1 ATU,                                        !- Name
  Floor_5_AHU1 Supply Inlet,                               !- Air Distribution Unit Outlet Node Name
  AirTerminal:SingleDuct:VAV:Reheat,                       !- Air Terminal Object Type
  Floor_5_AHU1 VAV Reheat;                                 !- Air Terminal Name

AirTerminal:SingleDuct:VAV:Reheat,
  Floor_5_AHU1 VAV Reheat,                                 !- Name
  ,                                                        !- Availability Schedule Name
  Floor_5_AHU1 Damper Outlet,                              !- Damper Air Outlet Node Name
  Floor_5_AHU1 Zone Equip Inlet,                           !- Air Inlet Node Name
  autosize,                                                !- Maximum air flow rate {m3/s}
  Scheduled,                                                !- Zone Minimum Air Flow Input Method
  ,                                                     !- Constant Minimum Air Flow Fraction
  ,                                                        !- Fixed Minimum Air Flow Rate
  VAV Min Flow Frac Sch,                                                        !- Minimum Air Flow Fraction Schedule Name
  Coil:Heating:Water,                                      !- Reheat Coil Object Type
  Floor_5_AHU1 Reheat Coil,                                !- Reheat Coil Name
  autosize,                                                !- Maximum Hot Water or Steam Flow Rate {m3/s}
  0,                                                       !- Minimum Hot Water or Steam Flow Rate {m3/s}
  Floor_5_AHU1 Supply Inlet,                               !- Air Outlet Node Name
  0.001,                                                   !- Convergence Tolerance
  Reverse,                                                 !- Damper Heating Action
  ,                                                        !- Maximum Flow per Zone Floor Area During Reheat
  ,                                                        !- Maximum Flow Fraction During Reheat
  ,                                                        !- Maximum Reheat Air Temperature
  ;                                                        !- Design Specification Outdoor Air Object Name

Coil:Heating:Water,
  Floor_5_AHU1 Reheat Coil,                                !- Name
  ,                                                        !- Availability Schedule Name
  autosize,                                                !- U-Factor Times Area Value {W/K}
  autosize,                                                !- Maximum Water Flow Rate {m3/s}
  Floor_5_AHU1 Reheat Coil HW Inlet,                       !- Water Inlet Node Name
  Floor_5_AHU1 Reheat Coil HW Outlet,                      !- Water Outlet Node Name
  Floor_5_AHU1 Damper Outlet,                              !- Air Inlet Node Name
  Floor_5_AHU1 Supply Inlet,                               !- Air Outlet Node Name
  UFactorTimesAreaAndDesignWaterFlowRate,                  !- Performance Input Method
  autosize,                                                !- Rated Capacity
  82.2,                                                    !- Rated Inlet Water Temperature
  16.6,                                                    !- Rated Inlet Air Temperature
  71.1,                                                    !- Rated Outlet Water Temperature
  32.2,                                                    !- Rated Outlet Air Temperature
  0.5;                                                     !- Rated Ratio for Air and Water Convection

Branch,
  Floor_5_AHU1 Reheat Coil HW Branch,                      !- Name
  ,                                                        !- Pressure Drop Curve Name
  Coil:Heating:Water,                                      !- Component Object Type
  Floor_5_AHU1 Reheat Coil,                                !- Component Name
  Floor_5_AHU1 Reheat Coil HW Inlet,                       !- Component Inlet Node Name
  Floor_5_AHU1 Reheat Coil HW Outlet;                      !- Component Outlet Node Name

ZoneControl:Thermostat,
  Floor_6_AHU1 Thermostat,                                 !- Name
  Floor_6_AHU1,                                            !- Zone or ZoneList Name
  HVACTemplate-Always 4,                                   !- Control Type Schedule Name
  ThermostatSetpoint:DualSetpoint,                         !- Control Object Type
  All Zones Dual SP Control;                               !- Control Name

DesignSpecification:OutdoorAir,
  SZ DSOA Floor_6_AHU1,                                    !- Name
  flow/person,                                             !- Outdoor Air Method
  0.00944,                                                 !- Outdoor Air Flow per Person {m3/s}
  0.0,                                                     !- Outdoor Air Flow per Zone Floor Area {m3/s-m2}
  0.0;                                                     !- Outdoor Air Flow per Zone {m3/s}

Sizing:Zone,
  Floor_6_AHU1,                                            !- Zone or ZoneList Name
  SupplyAirTemperature,                                    !- Zone Cooling Design Supply Air Temperature Input Method
  12.8,                                                    !- Zone Cooling Design Supply Air Temperature {C}
  11.11,                                                   !- Zone Cooling Design Supply Air Temperature Difference {delta C}
  SupplyAirTemperature,                                    !- Zone Heating Design Supply Air Temperature Input Method
  50.0,                                                    !- Zone Heating Design Supply Air Temperature {C}
  ,                                                        !- Zone Heating Design Supply Air Temperature Difference {delta C}
  0.008,                                                   !- Zone Cooling Design Supply Air Humidity Ratio {kg-H20/kg-air}
  0.008,                                                   !- Zone Heating Design Supply Air Humidity Ratio {kg-H2O/kg-air}
  SZ DSOA Floor_6_AHU1,                                    !- Design Specification Outdoor Air Object Name
  ,                                                        !- Zone Heating Sizing Factor
  ,                                                        !- Zone Cooling Sizing Factor
  DesignDay,                                               !- Cooling Design Air Flow Method
  0,                                                       !- Cooling Design Air Flow Rate {m3/s}
  ,                                                        !- Cooling Minimum Air Flow per Zone Floor Area {m3/s-m2}
  ,                                                        !- Cooling Minimum Air Flow {m3/s}
  0,                                                       !- Cooling Minimum Air Flow Fraction {}
  DesignDay,                                               !- Heating Design Air Flow Method
  0,                                                       !- Heating Design Air Flow Rate {m3/s}
  ,                                                        !- Heating Maximum Air Flow per Zone Floor Area {m3/s-m2}
  ,                                                        !- Heating Maximum Air Flow {m3/s}
  0,                                                       !- Heating Maximum Air Flow Fraction {}
  SZ DSZAD Floor_6_AHU1;                                   !- Design Specification Zone Air Distribution Object Name

DesignSpecification:ZoneAirDistribution,
  SZ DSZAD Floor_6_AHU1,                                   !- Name
  1,                                                       !- Zone Air Distribution Effectiveness in Cooling Mode {}
  1;                                                       !- Zone Air Distribution Effectiveness in Heating Mode {}

ZoneHVAC:EquipmentConnections,
  Floor_6_AHU1,                                            !- Zone Name
  Floor_6_AHU1 Equipment,                                  !- Zone Conditioning Equipment List Name
  Floor_6_AHU1 Supply Inlet,                               !- Zone Air Inlet Node or NodeList Name
  ,                                                        !- Zone Air Exhaust Node or NodeList Name
  Floor_6_AHU1 Zone Air Node,                              !- Zone Air Node Name
  Floor_6_AHU1 Return Outlet;                              !- Zone Return Air Node Name

ZoneHVAC:EquipmentList,
  Floor_6_AHU1 Equipment,                                  !- Name
  SequentialLoad,                                          !- Load Distribution Scheme
  ZoneHVAC:AirDistributionUnit,                            !- Zone Equipment Object Type
  Floor_6_AHU1 ATU,                                        !- Zone Equipment Name
  1,                                                       !- Zone Equipment Cooling Sequence
  1,                                                       !- Zone Equipment Heating or No-Load Sequence
  ,                                                        !- Zone Equipment Sequential Cooling Fraction Schedule Name
  ;                                                        !- Zone Equipment Sequential Heating Fraction Schedule Name

ZoneHVAC:AirDistributionUnit,
  Floor_6_AHU1 ATU,                                        !- Name
  Floor_6_AHU1 Supply Inlet,                               !- Air Distribution Unit Outlet Node Name
  AirTerminal:SingleDuct:VAV:Reheat,                       !- Air Terminal Object Type
  Floor_6_AHU1 VAV Reheat;                                 !- Air Terminal Name

AirTerminal:SingleDuct:VAV:Reheat,
  Floor_6_AHU1 VAV Reheat,                                 !- Name
  ,                                                        !- Availability Schedule Name
  Floor_6_AHU1 Damper Outlet,                              !- Damper Air Outlet Node Name
  Floor_6_AHU1 Zone Equip Inlet,                           !- Air Inlet Node Name
  autosize,                                                !- Maximum air flow rate {m3/s}
  Scheduled,                                                !- Zone Minimum Air Flow Input Method
  ,                                                     !- Constant Minimum Air Flow Fraction
  ,                                                        !- Fixed Minimum Air Flow Rate
  VAV Min Flow Frac Sch,                                                        !- Minimum Air Flow Fraction Schedule Name
  Coil:Heating:Water,                                      !- Reheat Coil Object Type
  Floor_6_AHU1 Reheat Coil,                                !- Reheat Coil Name
  autosize,                                                !- Maximum Hot Water or Steam Flow Rate {m3/s}
  0,                                                       !- Minimum Hot Water or Steam Flow Rate {m3/s}
  Floor_6_AHU1 Supply Inlet,                               !- Air Outlet Node Name
  0.001,                                                   !- Convergence Tolerance
  Reverse,                                                 !- Damper Heating Action
  ,                                                        !- Maximum Flow per Zone Floor Area During Reheat
  ,                                                        !- Maximum Flow Fraction During Reheat
  ,                                                        !- Maximum Reheat Air Temperature
  ;                                                        !- Design Specification Outdoor Air Object Name

Coil:Heating:Water,
  Floor_6_AHU1 Reheat Coil,                                !- Name
  ,                                                        !- Availability Schedule Name
  autosize,                                                !- U-Factor Times Area Value {W/K}
  autosize,                                                !- Maximum Water Flow Rate {m3/s}
  Floor_6_AHU1 Reheat Coil HW Inlet,                       !- Water Inlet Node Name
  Floor_6_AHU1 Reheat Coil HW Outlet,                      !- Water Outlet Node Name
  Floor_6_AHU1 Damper Outlet,                              !- Air Inlet Node Name
  Floor_6_AHU1 Supply Inlet,                               !- Air Outlet Node Name
  UFactorTimesAreaAndDesignWaterFlowRate,                  !- Performance Input Method
  autosize,                                                !- Rated Capacity
  82.2,                                                    !- Rated Inlet Water Temperature
  16.6,                                                    !- Rated Inlet Air Temperature
  71.1,                                                    !- Rated Outlet Water Temperature
  32.2,                                                    !- Rated Outlet Air Temperature
  0.5;                                                     !- Rated Ratio for Air and Water Convection

Branch,
  Floor_6_AHU1 Reheat Coil HW Branch,                      !- Name
  ,                                                        !- Pressure Drop Curve Name
  Coil:Heating:Water,                                      !- Component Object Type
  Floor_6_AHU1 Reheat Coil,                                !- Component Name
  Floor_6_AHU1 Reheat Coil HW Inlet,                       !- Component Inlet Node Name
  Floor_6_AHU1 Reheat Coil HW Outlet;                      !- Component Outlet Node Name

ZoneControl:Thermostat,
  Floor_1_AHU2 Thermostat,                                 !- Name
  Floor_1_AHU2,                                            !- Zone or ZoneList Name
  HVACTemplate-Always 4,                                   !- Control Type Schedule Name
  ThermostatSetpoint:DualSetpoint,                         !- Control Object Type
  All Zones Dual SP Control;                               !- Control Name

DesignSpecification:OutdoorAir,
  SZ DSOA Floor_1_AHU2,                                    !- Name
  flow/person,                                             !- Outdoor Air Method
  0.00944,                                                 !- Outdoor Air Flow per Person {m3/s}
  0.0,                                                     !- Outdoor Air Flow per Zone Floor Area {m3/s-m2}
  0.0;                                                     !- Outdoor Air Flow per Zone {m3/s}

Sizing:Zone,
  Floor_1_AHU2,                                            !- Zone or ZoneList Name
  SupplyAirTemperature,                                    !- Zone Cooling Design Supply Air Temperature Input Method
  8.89,                                                    !- Zone Cooling Design Supply Air Temperature {C}
  11.11,                                                   !- Zone Cooling Design Supply Air Temperature Difference {delta C}
  SupplyAirTemperature,                                    !- Zone Heating Design Supply Air Temperature Input Method
  50.0,                                                    !- Zone Heating Design Supply Air Temperature {C}
  ,                                                        !- Zone Heating Design Supply Air Temperature Difference {delta C}
  0.008,                                                   !- Zone Cooling Design Supply Air Humidity Ratio {kg-H20/kg-air}
  0.008,                                                   !- Zone Heating Design Supply Air Humidity Ratio {kg-H2O/kg-air}
  SZ DSOA Floor_1_AHU2,                                    !- Design Specification Outdoor Air Object Name
  ,                                                        !- Zone Heating Sizing Factor
  ,                                                        !- Zone Cooling Sizing Factor
  DesignDay,                                               !- Cooling Design Air Flow Method
  0,                                                       !- Cooling Design Air Flow Rate {m3/s}
  ,                                                        !- Cooling Minimum Air Flow per Zone Floor Area {m3/s-m2}
  ,                                                        !- Cooling Minimum Air Flow {m3/s}
  0,                                                       !- Cooling Minimum Air Flow Fraction {}
  DesignDay,                                               !- Heating Design Air Flow Method
  0,                                                       !- Heating Design Air Flow Rate {m3/s}
  ,                                                        !- Heating Maximum Air Flow per Zone Floor Area {m3/s-m2}
  ,                                                        !- Heating Maximum Air Flow {m3/s}
  0,                                                       !- Heating Maximum Air Flow Fraction {}
  SZ DSZAD Floor_1_AHU2;                                   !- Design Specification Zone Air Distribution Object Name

DesignSpecification:ZoneAirDistribution,
  SZ DSZAD Floor_1_AHU2,                                   !- Name
  1,                                                       !- Zone Air Distribution Effectiveness in Cooling Mode {}
  1;                                                       !- Zone Air Distribution Effectiveness in Heating Mode {}

ZoneHVAC:EquipmentConnections,
  Floor_1_AHU2,                                            !- Zone Name
  Floor_1_AHU2 Equipment,                                  !- Zone Conditioning Equipment List Name
  Floor_1_AHU2 Supply Inlet,                               !- Zone Air Inlet Node or NodeList Name
  ,                                                        !- Zone Air Exhaust Node or NodeList Name
  Floor_1_AHU2 Zone Air Node,                              !- Zone Air Node Name
  Floor_1_AHU2 Return Outlet;                              !- Zone Return Air Node Name

ZoneHVAC:EquipmentList,
  Floor_1_AHU2 Equipment,                                  !- Name
  SequentialLoad,                                          !- Load Distribution Scheme
  ZoneHVAC:AirDistributionUnit,                            !- Zone Equipment Object Type
  Floor_1_AHU2 ATU,                                        !- Zone Equipment Name
  1,                                                       !- Zone Equipment Cooling Sequence
  1,                                                       !- Zone Equipment Heating or No-Load Sequence
  ,                                                        !- Zone Equipment Sequential Cooling Fraction Schedule Name
  ;                                                        !- Zone Equipment Sequential Heating Fraction Schedule Name

ZoneHVAC:AirDistributionUnit,
  Floor_1_AHU2 ATU,                                        !- Name
  Floor_1_AHU2 Supply Inlet,                               !- Air Distribution Unit Outlet Node Name
  AirTerminal:SingleDuct:VAV:Reheat,                       !- Air Terminal Object Type
  Floor_1_AHU2 VAV Reheat;                                 !- Air Terminal Name

AirTerminal:SingleDuct:VAV:Reheat,
  Floor_1_AHU2 VAV Reheat,                                 !- Name
  ,                                                        !- Availability Schedule Name
  Floor_1_AHU2 Damper Outlet,                              !- Damper Air Outlet Node Name
  Floor_1_AHU2 Zone Equip Inlet,                           !- Air Inlet Node Name
  autosize,                                                !- Maximum air flow rate {m3/s}
  Scheduled,                                                !- Zone Minimum Air Flow Input Method
  ,                                                     !- Constant Minimum Air Flow Fraction
  ,                                                        !- Fixed Minimum Air Flow Rate
  VAV Min Flow Frac Sch,                                                        !- Minimum Air Flow Fraction Schedule Name
  Coil:Heating:Water,                                      !- Reheat Coil Object Type
  Floor_1_AHU2 Reheat Coil,                                !- Reheat Coil Name
  autosize,                                                !- Maximum Hot Water or Steam Flow Rate {m3/s}
  0,                                                       !- Minimum Hot Water or Steam Flow Rate {m3/s}
  Floor_1_AHU2 Supply Inlet,                               !- Air Outlet Node Name
  0.001,                                                   !- Convergence Tolerance
  Reverse,                                                 !- Damper Heating Action
  ,                                                        !- Maximum Flow per Zone Floor Area During Reheat
  ,                                                        !- Maximum Flow Fraction During Reheat
  ,                                                        !- Maximum Reheat Air Temperature
  ;                                                        !- Design Specification Outdoor Air Object Name

Coil:Heating:Water,
  Floor_1_AHU2 Reheat Coil,                                !- Name
  ,                                                        !- Availability Schedule Name
  autosize,                                                !- U-Factor Times Area Value {W/K}
  autosize,                                                !- Maximum Water Flow Rate {m3/s}
  Floor_1_AHU2 Reheat Coil HW Inlet,                       !- Water Inlet Node Name
  Floor_1_AHU2 Reheat Coil HW Outlet,                      !- Water Outlet Node Name
  Floor_1_AHU2 Damper Outlet,                              !- Air Inlet Node Name
  Floor_1_AHU2 Supply Inlet,                               !- Air Outlet Node Name
  UFactorTimesAreaAndDesignWaterFlowRate,                  !- Performance Input Method
  autosize,                                                !- Rated Capacity
  82.2,                                                    !- Rated Inlet Water Temperature
  16.6,                                                    !- Rated Inlet Air Temperature
  71.1,                                                    !- Rated Outlet Water Temperature
  32.2,                                                    !- Rated Outlet Air Temperature
  0.5;                                                     !- Rated Ratio for Air and Water Convection

Branch,
  Floor_1_AHU2 Reheat Coil HW Branch,                      !- Name
  ,                                                        !- Pressure Drop Curve Name
  Coil:Heating:Water,                                      !- Component Object Type
  Floor_1_AHU2 Reheat Coil,                                !- Component Name
  Floor_1_AHU2 Reheat Coil HW Inlet,                       !- Component Inlet Node Name
  Floor_1_AHU2 Reheat Coil HW Outlet;                      !- Component Outlet Node Name

ZoneControl:Thermostat,
  Floor_2_AHU2 Thermostat,                                 !- Name
  Floor_2_AHU2,                                            !- Zone or ZoneList Name
  HVACTemplate-Always 4,                                   !- Control Type Schedule Name
  ThermostatSetpoint:DualSetpoint,                         !- Control Object Type
  All Zones Dual SP Control;                               !- Control Name

DesignSpecification:OutdoorAir,
  SZ DSOA Floor_2_AHU2,                                    !- Name
  flow/person,                                             !- Outdoor Air Method
  0.00944,                                                 !- Outdoor Air Flow per Person {m3/s}
  0.0,                                                     !- Outdoor Air Flow per Zone Floor Area {m3/s-m2}
  0.0;                                                     !- Outdoor Air Flow per Zone {m3/s}

Sizing:Zone,
  Floor_2_AHU2,                                            !- Zone or ZoneList Name
  SupplyAirTemperature,                                    !- Zone Cooling Design Supply Air Temperature Input Method
  8.89,                                                    !- Zone Cooling Design Supply Air Temperature {C}
  11.11,                                                   !- Zone Cooling Design Supply Air Temperature Difference {delta C}
  SupplyAirTemperature,                                    !- Zone Heating Design Supply Air Temperature Input Method
  50.0,                                                    !- Zone Heating Design Supply Air Temperature {C}
  ,                                                        !- Zone Heating Design Supply Air Temperature Difference {delta C}
  0.008,                                                   !- Zone Cooling Design Supply Air Humidity Ratio {kg-H20/kg-air}
  0.008,                                                   !- Zone Heating Design Supply Air Humidity Ratio {kg-H2O/kg-air}
  SZ DSOA Floor_2_AHU2,                                    !- Design Specification Outdoor Air Object Name
  ,                                                        !- Zone Heating Sizing Factor
  ,                                                        !- Zone Cooling Sizing Factor
  DesignDay,                                               !- Cooling Design Air Flow Method
  0,                                                       !- Cooling Design Air Flow Rate {m3/s}
  ,                                                        !- Cooling Minimum Air Flow per Zone Floor Area {m3/s-m2}
  ,                                                        !- Cooling Minimum Air Flow {m3/s}
  0,                                                       !- Cooling Minimum Air Flow Fraction {}
  DesignDay,                                               !- Heating Design Air Flow Method
  0,                                                       !- Heating Design Air Flow Rate {m3/s}
  ,                                                        !- Heating Maximum Air Flow per Zone Floor Area {m3/s-m2}
  ,                                                        !- Heating Maximum Air Flow {m3/s}
  0,                                                       !- Heating Maximum Air Flow Fraction {}
  SZ DSZAD Floor_2_AHU2;                                   !- Design Specification Zone Air Distribution Object Name

DesignSpecification:ZoneAirDistribution,
  SZ DSZAD Floor_2_AHU2,                                   !- Name
  1,                                                       !- Zone Air Distribution Effectiveness in Cooling Mode {}
  1;                                                       !- Zone Air Distribution Effectiveness in Heating Mode {}

ZoneHVAC:EquipmentConnections,
  Floor_2_AHU2,                                            !- Zone Name
  Floor_2_AHU2 Equipment,                                  !- Zone Conditioning Equipment List Name
  Floor_2_AHU2 Supply Inlet,                               !- Zone Air Inlet Node or NodeList Name
  ,                                                        !- Zone Air Exhaust Node or NodeList Name
  Floor_2_AHU2 Zone Air Node,                              !- Zone Air Node Name
  Floor_2_AHU2 Return Outlet;                              !- Zone Return Air Node Name

ZoneHVAC:EquipmentList,
  Floor_2_AHU2 Equipment,                                  !- Name
  SequentialLoad,                                          !- Load Distribution Scheme
  ZoneHVAC:AirDistributionUnit,                            !- Zone Equipment Object Type
  Floor_2_AHU2 ATU,                                        !- Zone Equipment Name
  1,                                                       !- Zone Equipment Cooling Sequence
  1,                                                       !- Zone Equipment Heating or No-Load Sequence
  ,                                                        !- Zone Equipment Sequential Cooling Fraction Schedule Name
  ;                                                        !- Zone Equipment Sequential Heating Fraction Schedule Name

ZoneHVAC:AirDistributionUnit,
  Floor_2_AHU2 ATU,                                        !- Name
  Floor_2_AHU2 Supply Inlet,                               !- Air Distribution Unit Outlet Node Name
  AirTerminal:SingleDuct:VAV:Reheat,                       !- Air Terminal Object Type
  Floor_2_AHU2 VAV Reheat;                                 !- Air Terminal Name

AirTerminal:SingleDuct:VAV:Reheat,
  Floor_2_AHU2 VAV Reheat,                                 !- Name
  ,                                                        !- Availability Schedule Name
  Floor_2_AHU2 Damper Outlet,                              !- Damper Air Outlet Node Name
  Floor_2_AHU2 Zone Equip Inlet,                           !- Air Inlet Node Name
  autosize,                                                !- Maximum air flow rate {m3/s}
  Scheduled,                                                !- Zone Minimum Air Flow Input Method
  ,                                                     !- Constant Minimum Air Flow Fraction
  ,                                                        !- Fixed Minimum Air Flow Rate
  VAV Min Flow Frac Sch,                                                        !- Minimum Air Flow Fraction Schedule Name
  Coil:Heating:Water,                                      !- Reheat Coil Object Type
  Floor_2_AHU2 Reheat Coil,                                !- Reheat Coil Name
  autosize,                                                !- Maximum Hot Water or Steam Flow Rate {m3/s}
  0,                                                       !- Minimum Hot Water or Steam Flow Rate {m3/s}
  Floor_2_AHU2 Supply Inlet,                               !- Air Outlet Node Name
  0.001,                                                   !- Convergence Tolerance
  Reverse,                                                 !- Damper Heating Action
  ,                                                        !- Maximum Flow per Zone Floor Area During Reheat
  ,                                                        !- Maximum Flow Fraction During Reheat
  ,                                                        !- Maximum Reheat Air Temperature
  ;                                                        !- Design Specification Outdoor Air Object Name

Coil:Heating:Water,
  Floor_2_AHU2 Reheat Coil,                                !- Name
  ,                                                        !- Availability Schedule Name
  autosize,                                                !- U-Factor Times Area Value {W/K}
  autosize,                                                !- Maximum Water Flow Rate {m3/s}
  Floor_2_AHU2 Reheat Coil HW Inlet,                       !- Water Inlet Node Name
  Floor_2_AHU2 Reheat Coil HW Outlet,                      !- Water Outlet Node Name
  Floor_2_AHU2 Damper Outlet,                              !- Air Inlet Node Name
  Floor_2_AHU2 Supply Inlet,                               !- Air Outlet Node Name
  UFactorTimesAreaAndDesignWaterFlowRate,                  !- Performance Input Method
  autosize,                                                !- Rated Capacity
  82.2,                                                    !- Rated Inlet Water Temperature
  16.6,                                                    !- Rated Inlet Air Temperature
  71.1,                                                    !- Rated Outlet Water Temperature
  32.2,                                                    !- Rated Outlet Air Temperature
  0.5;                                                     !- Rated Ratio for Air and Water Convection

Branch,
  Floor_2_AHU2 Reheat Coil HW Branch,                      !- Name
  ,                                                        !- Pressure Drop Curve Name
  Coil:Heating:Water,                                      !- Component Object Type
  Floor_2_AHU2 Reheat Coil,                                !- Component Name
  Floor_2_AHU2 Reheat Coil HW Inlet,                       !- Component Inlet Node Name
  Floor_2_AHU2 Reheat Coil HW Outlet;                      !- Component Outlet Node Name

ZoneControl:Thermostat,
  Floor_3_AHU2 Thermostat,                                 !- Name
  Floor_3_AHU2,                                            !- Zone or ZoneList Name
  HVACTemplate-Always 4,                                   !- Control Type Schedule Name
  ThermostatSetpoint:DualSetpoint,                         !- Control Object Type
  All Zones Dual SP Control;                               !- Control Name

DesignSpecification:OutdoorAir,
  SZ DSOA Floor_3_AHU2,                                    !- Name
  flow/person,                                             !- Outdoor Air Method
  0.00944,                                                 !- Outdoor Air Flow per Person {m3/s}
  0.0,                                                     !- Outdoor Air Flow per Zone Floor Area {m3/s-m2}
  0.0;                                                     !- Outdoor Air Flow per Zone {m3/s}

Sizing:Zone,
  Floor_3_AHU2,                                            !- Zone or ZoneList Name
  SupplyAirTemperature,                                    !- Zone Cooling Design Supply Air Temperature Input Method
  8.89,                                                    !- Zone Cooling Design Supply Air Temperature {C}
  11.11,                                                   !- Zone Cooling Design Supply Air Temperature Difference {delta C}
  SupplyAirTemperature,                                    !- Zone Heating Design Supply Air Temperature Input Method
  50.0,                                                    !- Zone Heating Design Supply Air Temperature {C}
  ,                                                        !- Zone Heating Design Supply Air Temperature Difference {delta C}
  0.008,                                                   !- Zone Cooling Design Supply Air Humidity Ratio {kg-H20/kg-air}
  0.008,                                                   !- Zone Heating Design Supply Air Humidity Ratio {kg-H2O/kg-air}
  SZ DSOA Floor_3_AHU2,                                    !- Design Specification Outdoor Air Object Name
  ,                                                        !- Zone Heating Sizing Factor
  ,                                                        !- Zone Cooling Sizing Factor
  DesignDay,                                               !- Cooling Design Air Flow Method
  0,                                                       !- Cooling Design Air Flow Rate {m3/s}
  ,                                                        !- Cooling Minimum Air Flow per Zone Floor Area {m3/s-m2}
  ,                                                        !- Cooling Minimum Air Flow {m3/s}
  0,                                                       !- Cooling Minimum Air Flow Fraction {}
  DesignDay,                                               !- Heating Design Air Flow Method
  0,                                                       !- Heating Design Air Flow Rate {m3/s}
  ,                                                        !- Heating Maximum Air Flow per Zone Floor Area {m3/s-m2}
  ,                                                        !- Heating Maximum Air Flow {m3/s}
  0,                                                       !- Heating Maximum Air Flow Fraction {}
  SZ DSZAD Floor_3_AHU2;                                   !- Design Specification Zone Air Distribution Object Name

DesignSpecification:ZoneAirDistribution,
  SZ DSZAD Floor_3_AHU2,                                   !- Name
  1,                                                       !- Zone Air Distribution Effectiveness in Cooling Mode {}
  1;                                                       !- Zone Air Distribution Effectiveness in Heating Mode {}

ZoneHVAC:EquipmentConnections,
  Floor_3_AHU2,                                            !- Zone Name
  Floor_3_AHU2 Equipment,                                  !- Zone Conditioning Equipment List Name
  Floor_3_AHU2 Supply Inlet,                               !- Zone Air Inlet Node or NodeList Name
  ,                                                        !- Zone Air Exhaust Node or NodeList Name
  Floor_3_AHU2 Zone Air Node,                              !- Zone Air Node Name
  Floor_3_AHU2 Return Outlet;                              !- Zone Return Air Node Name

ZoneHVAC:EquipmentList,
  Floor_3_AHU2 Equipment,                                  !- Name
  SequentialLoad,                                          !- Load Distribution Scheme
  ZoneHVAC:AirDistributionUnit,                            !- Zone Equipment Object Type
  Floor_3_AHU2 ATU,                                        !- Zone Equipment Name
  1,                                                       !- Zone Equipment Cooling Sequence
  1,                                                       !- Zone Equipment Heating or No-Load Sequence
  ,                                                        !- Zone Equipment Sequential Cooling Fraction Schedule Name
  ;                                                        !- Zone Equipment Sequential Heating Fraction Schedule Name

ZoneHVAC:AirDistributionUnit,
  Floor_3_AHU2 ATU,                                        !- Name
  Floor_3_AHU2 Supply Inlet,                               !- Air Distribution Unit Outlet Node Name
  AirTerminal:SingleDuct:VAV:Reheat,                       !- Air Terminal Object Type
  Floor_3_AHU2 VAV Reheat;                                 !- Air Terminal Name

AirTerminal:SingleDuct:VAV:Reheat,
  Floor_3_AHU2 VAV Reheat,                                 !- Name
  ,                                                        !- Availability Schedule Name
  Floor_3_AHU2 Damper Outlet,                              !- Damper Air Outlet Node Name
  Floor_3_AHU2 Zone Equip Inlet,                           !- Air Inlet Node Name
  autosize,                                                !- Maximum air flow rate {m3/s}
  Scheduled,                                                !- Zone Minimum Air Flow Input Method
  ,                                                     !- Constant Minimum Air Flow Fraction
  ,                                                        !- Fixed Minimum Air Flow Rate
  VAV Min Flow Frac Sch,                                                        !- Minimum Air Flow Fraction Schedule Name
  Coil:Heating:Water,                                      !- Reheat Coil Object Type
  Floor_3_AHU2 Reheat Coil,                                !- Reheat Coil Name
  autosize,                                                !- Maximum Hot Water or Steam Flow Rate {m3/s}
  0,                                                       !- Minimum Hot Water or Steam Flow Rate {m3/s}
  Floor_3_AHU2 Supply Inlet,                               !- Air Outlet Node Name
  0.001,                                                   !- Convergence Tolerance
  Reverse,                                                 !- Damper Heating Action
  ,                                                        !- Maximum Flow per Zone Floor Area During Reheat
  ,                                                        !- Maximum Flow Fraction During Reheat
  ,                                                        !- Maximum Reheat Air Temperature
  ;                                                        !- Design Specification Outdoor Air Object Name

Coil:Heating:Water,
  Floor_3_AHU2 Reheat Coil,                                !- Name
  ,                                                        !- Availability Schedule Name
  autosize,                                                !- U-Factor Times Area Value {W/K}
  autosize,                                                !- Maximum Water Flow Rate {m3/s}
  Floor_3_AHU2 Reheat Coil HW Inlet,                       !- Water Inlet Node Name
  Floor_3_AHU2 Reheat Coil HW Outlet,                      !- Water Outlet Node Name
  Floor_3_AHU2 Damper Outlet,                              !- Air Inlet Node Name
  Floor_3_AHU2 Supply Inlet,                               !- Air Outlet Node Name
  UFactorTimesAreaAndDesignWaterFlowRate,                  !- Performance Input Method
  autosize,                                                !- Rated Capacity
  82.2,                                                    !- Rated Inlet Water Temperature
  16.6,                                                    !- Rated Inlet Air Temperature
  71.1,                                                    !- Rated Outlet Water Temperature
  32.2,                                                    !- Rated Outlet Air Temperature
  0.5;                                                     !- Rated Ratio for Air and Water Convection

Branch,
  Floor_3_AHU2 Reheat Coil HW Branch,                      !- Name
  ,                                                        !- Pressure Drop Curve Name
  Coil:Heating:Water,                                      !- Component Object Type
  Floor_3_AHU2 Reheat Coil,                                !- Component Name
  Floor_3_AHU2 Reheat Coil HW Inlet,                       !- Component Inlet Node Name
  Floor_3_AHU2 Reheat Coil HW Outlet;                      !- Component Outlet Node Name

ZoneControl:Thermostat,
  Floor_4_AHU2 Thermostat,                                 !- Name
  Floor_4_AHU2,                                            !- Zone or ZoneList Name
  HVACTemplate-Always 4,                                   !- Control Type Schedule Name
  ThermostatSetpoint:DualSetpoint,                         !- Control Object Type
  All Zones Dual SP Control;                               !- Control Name

DesignSpecification:OutdoorAir,
  SZ DSOA Floor_4_AHU2,                                    !- Name
  flow/person,                                             !- Outdoor Air Method
  0.00944,                                                 !- Outdoor Air Flow per Person {m3/s}
  0.0,                                                     !- Outdoor Air Flow per Zone Floor Area {m3/s-m2}
  0.0;                                                     !- Outdoor Air Flow per Zone {m3/s}

Sizing:Zone,
  Floor_4_AHU2,                                            !- Zone or ZoneList Name
  SupplyAirTemperature,                                    !- Zone Cooling Design Supply Air Temperature Input Method
  8.89,                                                    !- Zone Cooling Design Supply Air Temperature {C}
  11.11,                                                   !- Zone Cooling Design Supply Air Temperature Difference {delta C}
  SupplyAirTemperature,                                    !- Zone Heating Design Supply Air Temperature Input Method
  50.0,                                                    !- Zone Heating Design Supply Air Temperature {C}
  ,                                                        !- Zone Heating Design Supply Air Temperature Difference {delta C}
  0.008,                                                   !- Zone Cooling Design Supply Air Humidity Ratio {kg-H20/kg-air}
  0.008,                                                   !- Zone Heating Design Supply Air Humidity Ratio {kg-H2O/kg-air}
  SZ DSOA Floor_4_AHU2,                                    !- Design Specification Outdoor Air Object Name
  ,                                                        !- Zone Heating Sizing Factor
  ,                                                        !- Zone Cooling Sizing Factor
  DesignDay,                                               !- Cooling Design Air Flow Method
  0,                                                       !- Cooling Design Air Flow Rate {m3/s}
  ,                                                        !- Cooling Minimum Air Flow per Zone Floor Area {m3/s-m2}
  ,                                                        !- Cooling Minimum Air Flow {m3/s}
  0,                                                       !- Cooling Minimum Air Flow Fraction {}
  DesignDay,                                               !- Heating Design Air Flow Method
  0,                                                       !- Heating Design Air Flow Rate {m3/s}
  ,                                                        !- Heating Maximum Air Flow per Zone Floor Area {m3/s-m2}
  ,                                                        !- Heating Maximum Air Flow {m3/s}
  0,                                                       !- Heating Maximum Air Flow Fraction {}
  SZ DSZAD Floor_4_AHU2;                                   !- Design Specification Zone Air Distribution Object Name

DesignSpecification:ZoneAirDistribution,
  SZ DSZAD Floor_4_AHU2,                                   !- Name
  1,                                                       !- Zone Air Distribution Effectiveness in Cooling Mode {}
  1;                                                       !- Zone Air Distribution Effectiveness in Heating Mode {}

ZoneHVAC:EquipmentConnections,
  Floor_4_AHU2,                                            !- Zone Name
  Floor_4_AHU2 Equipment,                                  !- Zone Conditioning Equipment List Name
  Floor_4_AHU2 Supply Inlet,                               !- Zone Air Inlet Node or NodeList Name
  ,                                                        !- Zone Air Exhaust Node or NodeList Name
  Floor_4_AHU2 Zone Air Node,                              !- Zone Air Node Name
  Floor_4_AHU2 Return Outlet;                              !- Zone Return Air Node Name

ZoneHVAC:EquipmentList,
  Floor_4_AHU2 Equipment,                                  !- Name
  SequentialLoad,                                          !- Load Distribution Scheme
  ZoneHVAC:AirDistributionUnit,                            !- Zone Equipment Object Type
  Floor_4_AHU2 ATU,                                        !- Zone Equipment Name
  1,                                                       !- Zone Equipment Cooling Sequence
  1,                                                       !- Zone Equipment Heating or No-Load Sequence
  ,                                                        !- Zone Equipment Sequential Cooling Fraction Schedule Name
  ;                                                        !- Zone Equipment Sequential Heating Fraction Schedule Name

ZoneHVAC:AirDistributionUnit,
  Floor_4_AHU2 ATU,                                        !- Name
  Floor_4_AHU2 Supply Inlet,                               !- Air Distribution Unit Outlet Node Name
  AirTerminal:SingleDuct:VAV:Reheat,                       !- Air Terminal Object Type
  Floor_4_AHU2 VAV Reheat;                                 !- Air Terminal Name

AirTerminal:SingleDuct:VAV:Reheat,
  Floor_4_AHU2 VAV Reheat,                                 !- Name
  ,                                                        !- Availability Schedule Name
  Floor_4_AHU2 Damper Outlet,                              !- Damper Air Outlet Node Name
  Floor_4_AHU2 Zone Equip Inlet,                           !- Air Inlet Node Name
  autosize,                                                !- Maximum air flow rate {m3/s}
  Scheduled,                                                !- Zone Minimum Air Flow Input Method
  ,                                                     !- Constant Minimum Air Flow Fraction
  ,                                                        !- Fixed Minimum Air Flow Rate
  VAV Min Flow Frac Sch,                                                        !- Minimum Air Flow Fraction Schedule Name
  Coil:Heating:Water,                                      !- Reheat Coil Object Type
  Floor_4_AHU2 Reheat Coil,                                !- Reheat Coil Name
  autosize,                                                !- Maximum Hot Water or Steam Flow Rate {m3/s}
  0,                                                       !- Minimum Hot Water or Steam Flow Rate {m3/s}
  Floor_4_AHU2 Supply Inlet,                               !- Air Outlet Node Name
  0.001,                                                   !- Convergence Tolerance
  Reverse,                                                 !- Damper Heating Action
  ,                                                        !- Maximum Flow per Zone Floor Area During Reheat
  ,                                                        !- Maximum Flow Fraction During Reheat
  ,                                                        !- Maximum Reheat Air Temperature
  ;                                                        !- Design Specification Outdoor Air Object Name

Coil:Heating:Water,
  Floor_4_AHU2 Reheat Coil,                                !- Name
  ,                                                        !- Availability Schedule Name
  autosize,                                                !- U-Factor Times Area Value {W/K}
  autosize,                                                !- Maximum Water Flow Rate {m3/s}
  Floor_4_AHU2 Reheat Coil HW Inlet,                       !- Water Inlet Node Name
  Floor_4_AHU2 Reheat Coil HW Outlet,                      !- Water Outlet Node Name
  Floor_4_AHU2 Damper Outlet,                              !- Air Inlet Node Name
  Floor_4_AHU2 Supply Inlet,                               !- Air Outlet Node Name
  UFactorTimesAreaAndDesignWaterFlowRate,                  !- Performance Input Method
  autosize,                                                !- Rated Capacity
  82.2,                                                    !- Rated Inlet Water Temperature
  16.6,                                                    !- Rated Inlet Air Temperature
  71.1,                                                    !- Rated Outlet Water Temperature
  32.2,                                                    !- Rated Outlet Air Temperature
  0.5;                                                     !- Rated Ratio for Air and Water Convection

Branch,
  Floor_4_AHU2 Reheat Coil HW Branch,                      !- Name
  ,                                                        !- Pressure Drop Curve Name
  Coil:Heating:Water,                                      !- Component Object Type
  Floor_4_AHU2 Reheat Coil,                                !- Component Name
  Floor_4_AHU2 Reheat Coil HW Inlet,                       !- Component Inlet Node Name
  Floor_4_AHU2 Reheat Coil HW Outlet;                      !- Component Outlet Node Name

ZoneControl:Thermostat,
  Floor_5_AHU2 Thermostat,                                 !- Name
  Floor_5_AHU2,                                            !- Zone or ZoneList Name
  HVACTemplate-Always 4,                                   !- Control Type Schedule Name
  ThermostatSetpoint:DualSetpoint,                         !- Control Object Type
  All Zones Dual SP Control;                               !- Control Name

DesignSpecification:OutdoorAir,
  SZ DSOA Floor_5_AHU2,                                    !- Name
  flow/person,                                             !- Outdoor Air Method
  0.00944,                                                 !- Outdoor Air Flow per Person {m3/s}
  0.0,                                                     !- Outdoor Air Flow per Zone Floor Area {m3/s-m2}
  0.0;                                                     !- Outdoor Air Flow per Zone {m3/s}

Sizing:Zone,
  Floor_5_AHU2,                                            !- Zone or ZoneList Name
  SupplyAirTemperature,                                    !- Zone Cooling Design Supply Air Temperature Input Method
  8.89,                                                    !- Zone Cooling Design Supply Air Temperature {C}
  11.11,                                                   !- Zone Cooling Design Supply Air Temperature Difference {delta C}
  SupplyAirTemperature,                                    !- Zone Heating Design Supply Air Temperature Input Method
  50.0,                                                    !- Zone Heating Design Supply Air Temperature {C}
  ,                                                        !- Zone Heating Design Supply Air Temperature Difference {delta C}
  0.008,                                                   !- Zone Cooling Design Supply Air Humidity Ratio {kg-H20/kg-air}
  0.008,                                                   !- Zone Heating Design Supply Air Humidity Ratio {kg-H2O/kg-air}
  SZ DSOA Floor_5_AHU2,                                    !- Design Specification Outdoor Air Object Name
  ,                                                        !- Zone Heating Sizing Factor
  ,                                                        !- Zone Cooling Sizing Factor
  DesignDay,                                               !- Cooling Design Air Flow Method
  0,                                                       !- Cooling Design Air Flow Rate {m3/s}
  ,                                                        !- Cooling Minimum Air Flow per Zone Floor Area {m3/s-m2}
  ,                                                        !- Cooling Minimum Air Flow {m3/s}
  0,                                                       !- Cooling Minimum Air Flow Fraction {}
  DesignDay,                                               !- Heating Design Air Flow Method
  0,                                                       !- Heating Design Air Flow Rate {m3/s}
  ,                                                        !- Heating Maximum Air Flow per Zone Floor Area {m3/s-m2}
  ,                                                        !- Heating Maximum Air Flow {m3/s}
  0,                                                       !- Heating Maximum Air Flow Fraction {}
  SZ DSZAD Floor_5_AHU2;                                   !- Design Specification Zone Air Distribution Object Name

DesignSpecification:ZoneAirDistribution,
  SZ DSZAD Floor_5_AHU2,                                   !- Name
  1,                                                       !- Zone Air Distribution Effectiveness in Cooling Mode {}
  1;                                                       !- Zone Air Distribution Effectiveness in Heating Mode {}

ZoneHVAC:EquipmentConnections,
  Floor_5_AHU2,                                            !- Zone Name
  Floor_5_AHU2 Equipment,                                  !- Zone Conditioning Equipment List Name
  Floor_5_AHU2 Supply Inlet,                               !- Zone Air Inlet Node or NodeList Name
  ,                                                        !- Zone Air Exhaust Node or NodeList Name
  Floor_5_AHU2 Zone Air Node,                              !- Zone Air Node Name
  Floor_5_AHU2 Return Outlet;                              !- Zone Return Air Node Name

ZoneHVAC:EquipmentList,
  Floor_5_AHU2 Equipment,                                  !- Name
  SequentialLoad,                                          !- Load Distribution Scheme
  ZoneHVAC:AirDistributionUnit,                            !- Zone Equipment Object Type
  Floor_5_AHU2 ATU,                                        !- Zone Equipment Name
  1,                                                       !- Zone Equipment Cooling Sequence
  1,                                                       !- Zone Equipment Heating or No-Load Sequence
  ,                                                        !- Zone Equipment Sequential Cooling Fraction Schedule Name
  ;                                                        !- Zone Equipment Sequential Heating Fraction Schedule Name

ZoneHVAC:AirDistributionUnit,
  Floor_5_AHU2 ATU,                                        !- Name
  Floor_5_AHU2 Supply Inlet,                               !- Air Distribution Unit Outlet Node Name
  AirTerminal:SingleDuct:VAV:Reheat,                       !- Air Terminal Object Type
  Floor_5_AHU2 VAV Reheat;                                 !- Air Terminal Name

AirTerminal:SingleDuct:VAV:Reheat,
  Floor_5_AHU2 VAV Reheat,                                 !- Name
  ,                                                        !- Availability Schedule Name
  Floor_5_AHU2 Damper Outlet,                              !- Damper Air Outlet Node Name
  Floor_5_AHU2 Zone Equip Inlet,                           !- Air Inlet Node Name
  autosize,                                                !- Maximum air flow rate {m3/s}
  Scheduled,                                                !- Zone Minimum Air Flow Input Method
  ,                                                     !- Constant Minimum Air Flow Fraction
  ,                                                        !- Fixed Minimum Air Flow Rate
  VAV Min Flow Frac Sch,                                                        !- Minimum Air Flow Fraction Schedule Name
  Coil:Heating:Water,                                      !- Reheat Coil Object Type
  Floor_5_AHU2 Reheat Coil,                                !- Reheat Coil Name
  autosize,                                                !- Maximum Hot Water or Steam Flow Rate {m3/s}
  0,                                                       !- Minimum Hot Water or Steam Flow Rate {m3/s}
  Floor_5_AHU2 Supply Inlet,                               !- Air Outlet Node Name
  0.001,                                                   !- Convergence Tolerance
  Reverse,                                                 !- Damper Heating Action
  ,                                                        !- Maximum Flow per Zone Floor Area During Reheat
  ,                                                        !- Maximum Flow Fraction During Reheat
  ,                                                        !- Maximum Reheat Air Temperature
  ;                                                        !- Design Specification Outdoor Air Object Name

Coil:Heating:Water,
  Floor_5_AHU2 Reheat Coil,                                !- Name
  ,                                                        !- Availability Schedule Name
  autosize,                                                !- U-Factor Times Area Value {W/K}
  autosize,                                                !- Maximum Water Flow Rate {m3/s}
  Floor_5_AHU2 Reheat Coil HW Inlet,                       !- Water Inlet Node Name
  Floor_5_AHU2 Reheat Coil HW Outlet,                      !- Water Outlet Node Name
  Floor_5_AHU2 Damper Outlet,                              !- Air Inlet Node Name
  Floor_5_AHU2 Supply Inlet,                               !- Air Outlet Node Name
  UFactorTimesAreaAndDesignWaterFlowRate,                  !- Performance Input Method
  autosize,                                                !- Rated Capacity
  82.2,                                                    !- Rated Inlet Water Temperature
  16.6,                                                    !- Rated Inlet Air Temperature
  71.1,                                                    !- Rated Outlet Water Temperature
  32.2,                                                    !- Rated Outlet Air Temperature
  0.5;                                                     !- Rated Ratio for Air and Water Convection

Branch,
  Floor_5_AHU2 Reheat Coil HW Branch,                      !- Name
  ,                                                        !- Pressure Drop Curve Name
  Coil:Heating:Water,                                      !- Component Object Type
  Floor_5_AHU2 Reheat Coil,                                !- Component Name
  Floor_5_AHU2 Reheat Coil HW Inlet,                       !- Component Inlet Node Name
  Floor_5_AHU2 Reheat Coil HW Outlet;                      !- Component Outlet Node Name

ZoneControl:Thermostat,
  Floor_6_AHU2 Thermostat,                                 !- Name
  Floor_6_AHU2,                                            !- Zone or ZoneList Name
  HVACTemplate-Always 4,                                   !- Control Type Schedule Name
  ThermostatSetpoint:DualSetpoint,                         !- Control Object Type
  All Zones Dual SP Control;                               !- Control Name

DesignSpecification:OutdoorAir,
  SZ DSOA Floor_6_AHU2,                                    !- Name
  flow/person,                                             !- Outdoor Air Method
  0.00944,                                                 !- Outdoor Air Flow per Person {m3/s}
  0.0,                                                     !- Outdoor Air Flow per Zone Floor Area {m3/s-m2}
  0.0;                                                     !- Outdoor Air Flow per Zone {m3/s}

Sizing:Zone,
  Floor_6_AHU2,                                            !- Zone or ZoneList Name
  SupplyAirTemperature,                                    !- Zone Cooling Design Supply Air Temperature Input Method
  8.89,                                                    !- Zone Cooling Design Supply Air Temperature {C}
  11.11,                                                   !- Zone Cooling Design Supply Air Temperature Difference {delta C}
  SupplyAirTemperature,                                    !- Zone Heating Design Supply Air Temperature Input Method
  50.0,                                                    !- Zone Heating Design Supply Air Temperature {C}
  ,                                                        !- Zone Heating Design Supply Air Temperature Difference {delta C}
  0.008,                                                   !- Zone Cooling Design Supply Air Humidity Ratio {kg-H20/kg-air}
  0.008,                                                   !- Zone Heating Design Supply Air Humidity Ratio {kg-H2O/kg-air}
  SZ DSOA Floor_6_AHU2,                                    !- Design Specification Outdoor Air Object Name
  ,                                                        !- Zone Heating Sizing Factor
  ,                                                        !- Zone Cooling Sizing Factor
  DesignDay,                                               !- Cooling Design Air Flow Method
  0,                                                       !- Cooling Design Air Flow Rate {m3/s}
  ,                                                        !- Cooling Minimum Air Flow per Zone Floor Area {m3/s-m2}
  ,                                                        !- Cooling Minimum Air Flow {m3/s}
  0,                                                       !- Cooling Minimum Air Flow Fraction {}
  DesignDay,                                               !- Heating Design Air Flow Method
  0,                                                       !- Heating Design Air Flow Rate {m3/s}
  ,                                                        !- Heating Maximum Air Flow per Zone Floor Area {m3/s-m2}
  ,                                                        !- Heating Maximum Air Flow {m3/s}
  0,                                                       !- Heating Maximum Air Flow Fraction {}
  SZ DSZAD Floor_6_AHU2;                                   !- Design Specification Zone Air Distribution Object Name

DesignSpecification:ZoneAirDistribution,
  SZ DSZAD Floor_6_AHU2,                                   !- Name
  1,                                                       !- Zone Air Distribution Effectiveness in Cooling Mode {}
  1;                                                       !- Zone Air Distribution Effectiveness in Heating Mode {}

ZoneHVAC:EquipmentConnections,
  Floor_6_AHU2,                                            !- Zone Name
  Floor_6_AHU2 Equipment,                                  !- Zone Conditioning Equipment List Name
  Floor_6_AHU2 Supply Inlet,                               !- Zone Air Inlet Node or NodeList Name
  ,                                                        !- Zone Air Exhaust Node or NodeList Name
  Floor_6_AHU2 Zone Air Node,                              !- Zone Air Node Name
  Floor_6_AHU2 Return Outlet;                              !- Zone Return Air Node Name

ZoneHVAC:EquipmentList,
  Floor_6_AHU2 Equipment,                                  !- Name
  SequentialLoad,                                          !- Load Distribution Scheme
  ZoneHVAC:AirDistributionUnit,                            !- Zone Equipment Object Type
  Floor_6_AHU2 ATU,                                        !- Zone Equipment Name
  1,                                                       !- Zone Equipment Cooling Sequence
  1,                                                       !- Zone Equipment Heating or No-Load Sequence
  ,                                                        !- Zone Equipment Sequential Cooling Fraction Schedule Name
  ;                                                        !- Zone Equipment Sequential Heating Fraction Schedule Name

ZoneHVAC:AirDistributionUnit,
  Floor_6_AHU2 ATU,                                        !- Name
  Floor_6_AHU2 Supply Inlet,                               !- Air Distribution Unit Outlet Node Name
  AirTerminal:SingleDuct:VAV:Reheat,                       !- Air Terminal Object Type
  Floor_6_AHU2 VAV Reheat;                                 !- Air Terminal Name

AirTerminal:SingleDuct:VAV:Reheat,
  Floor_6_AHU2 VAV Reheat,                                 !- Name
  ,                                                        !- Availability Schedule Name
  Floor_6_AHU2 Damper Outlet,                              !- Damper Air Outlet Node Name
  Floor_6_AHU2 Zone Equip Inlet,                           !- Air Inlet Node Name
  autosize,                                                !- Maximum air flow rate {m3/s}
  Scheduled,                                                !- Zone Minimum Air Flow Input Method
  ,                                                     !- Constant Minimum Air Flow Fraction
  ,                                                        !- Fixed Minimum Air Flow Rate
  VAV Min Flow Frac Sch,                                                        !- Minimum Air Flow Fraction Schedule Name
  Coil:Heating:Water,                                      !- Reheat Coil Object Type
  Floor_6_AHU2 Reheat Coil,                                !- Reheat Coil Name
  autosize,                                                !- Maximum Hot Water or Steam Flow Rate {m3/s}
  0,                                                       !- Minimum Hot Water or Steam Flow Rate {m3/s}
  Floor_6_AHU2 Supply Inlet,                               !- Air Outlet Node Name
  0.001,                                                   !- Convergence Tolerance
  Reverse,                                                 !- Damper Heating Action
  ,                                                        !- Maximum Flow per Zone Floor Area During Reheat
  ,                                                        !- Maximum Flow Fraction During Reheat
  ,                                                        !- Maximum Reheat Air Temperature
  ;                                                        !- Design Specification Outdoor Air Object Name

Coil:Heating:Water,
  Floor_6_AHU2 Reheat Coil,                                !- Name
  ,                                                        !- Availability Schedule Name
  autosize,                                                !- U-Factor Times Area Value {W/K}
  autosize,                                                !- Maximum Water Flow Rate {m3/s}
  Floor_6_AHU2 Reheat Coil HW Inlet,                       !- Water Inlet Node Name
  Floor_6_AHU2 Reheat Coil HW Outlet,                      !- Water Outlet Node Name
  Floor_6_AHU2 Damper Outlet,                              !- Air Inlet Node Name
  Floor_6_AHU2 Supply Inlet,                               !- Air Outlet Node Name
  UFactorTimesAreaAndDesignWaterFlowRate,                  !- Performance Input Method
  autosize,                                                !- Rated Capacity
  82.2,                                                    !- Rated Inlet Water Temperature
  16.6,                                                    !- Rated Inlet Air Temperature
  71.1,                                                    !- Rated Outlet Water Temperature
  32.2,                                                    !- Rated Outlet Air Temperature
  0.5;                                                     !- Rated Ratio for Air and Water Convection

Branch,
  Floor_6_AHU2 Reheat Coil HW Branch,                      !- Name
  ,                                                        !- Pressure Drop Curve Name
  Coil:Heating:Water,                                      !- Component Object Type
  Floor_6_AHU2 Reheat Coil,                                !- Component Name
  Floor_6_AHU2 Reheat Coil HW Inlet,                       !- Component Inlet Node Name
  Floor_6_AHU2 Reheat Coil HW Outlet;                      !- Component Outlet Node Name

Sizing:System,
  VAV Sys 1,                                               !- AirLoop Name
  Sensible,                                                !- Type of Load to Size On
  autosize,                                                !- Design Outdoor Air Flow Rate {m3/s}
  0.3,                                                     !- Central Heating Maximum System Air Flow Ratio
  7.2,                                                     !- Preheat Design Temperature {C}
  0.008,                                                   !- Preheat Design Humidity Ratio {kg-H2O/kg-air}
  11,                                                      !- Precool Design Temperature {C}
  0.008,                                                   !- Precool Design Humidity Ratio {kg-H2O/kg-air}
  12.8,                                                    !- Central Cooling Design Supply Air Temperature {C}
  10.0,                                                    !- Central Heating Design Supply Air Temperature {C}
  NonCoincident,                                           !- Type of Zone Sum to Use
  No,                                                      !- 100% Outdoor Air in Cooling
  No,                                                      !- 100% Outdoor Air in Heating
  0.008,                                                   !- Central Cooling Design Supply Air Humidity Ratio {kg-H2O/kg-air}
  0.008,                                                   !- Central Heating Design Supply Air Humidity Ratio {kg-H2O/kg-air}
  DesignDay,                                               !- Cooling Supply Air Flow Rate Method
  0,                                                       !- Cooling Supply Air Flow Rate {m3/s}
  ,                                                        !- Cooling Supply Air Flow Rate Per Floor Area {m3/s-m2}
  ,                                                        !- Cooling Fraction of Autosized Cooling Supply Air Flow Rate
  ,                                                        !- Cooling Supply Air Flow Rate Per Unit Cooling Capacity {m3/s-W}
  DesignDay,                                               !- Heating Supply Air Flow Rate Method
  0,                                                       !- Heating Supply Air Flow Rate {m3/s}
  ,                                                        !- Heating Supply Air Flow Rate Per Floor Area {m3/s-m2}
  ,                                                        !- Heating Fraction of Autosized Heating Supply Air Flow Rate
  ,                                                        !- Heating Fraction of Autosized Cooling Supply Air Flow Rate
  ,                                                        !- Heating Supply Air Flow Rate Per Unit Heating Capacity {m3/s-W}
  ZoneSum,                                                 !- System Outdoor Air Method
  1.0,                                                     !- Zone Maximum Outdoor Air Fraction
  CoolingDesignCapacity,                                   !- Cooling Design Capacity Method
  autosize,                                                !- Cooling Design Capacity {W}
  ,                                                        !- Cooling Design Capacity Per Floor Area {W/m2}
  ,                                                        !- Fraction of Autosized Cooling Design Capacity
  HeatingDesignCapacity,                                   !- Heating Design Capacity Method
  autosize,                                                !- Heating Design Capacity {W}
  ,                                                        !- Heating Design Capacity Per Floor Area {W/m2}
  ,                                                        !- Fraction of Autosized Heating Design Capacity
  OnOff;                                                   !- Central Cooling Capacity Control Method

AirLoopHVAC,
  VAV Sys 1,                                               !- Name
  VAV Sys 1 Controllers,                                   !- Controller List Name
  VAV Sys 1 Availability Managers,                         !- Availability Manager List Name
  autosize,                                                !- Design Supply Air Flow Rate {m3/s}
  VAV Sys 1 Branches,                                      !- Branch List Name
  ,                                                        !- Connector List Name
  VAV Sys 1 Air Loop Inlet,                                !- Supply Side Inlet Node Name
  VAV Sys 1 Return Air Outlet,                             !- Demand Side Outlet Node Name
  VAV Sys 1 Supply Path Inlet,                             !- Demand Side Inlet Node Names
  VAV Sys 1 Supply Fan Outlet;                             !- Supply Side Outlet Node Names

AirLoopHVAC:ControllerList,
  VAV Sys 1 Controllers,                                   !- Name
  Controller:WaterCoil,                                    !- Controller Object Type
  VAV Sys 1 Cooling Coil Controller,                       !- Controller Name
  Controller:WaterCoil,                                    !- Controller Object Type
  VAV Sys 1 Heating Coil Controller;                       !- Controller Name

BranchList,
  VAV Sys 1 Branches,                                      !- Name
  VAV Sys 1 Main Branch;                                   !- Branch Name

Branch,
  VAV Sys 1 Main Branch,                                   !- Name
  ,                                                        !- Pressure Drop Curve Name
  AirLoopHVAC:OutdoorAirSystem,                            !- Component Object Type
  VAV Sys 1 OA System,                                     !- Component Name
  VAV Sys 1 Air Loop Inlet,                                !- Component Inlet Node Name
  VAV Sys 1 Mixed Air Outlet,                              !- Component Outlet Node Name
  Coil:Cooling:Water,                                      !- Component Object Type
  VAV Sys 1 Cooling Coil,                                  !- Component Name
  VAV Sys 1 Mixed Air Outlet,                              !- Component Inlet Node Name
  VAV Sys 1 Cooling Coil Outlet,                           !- Component Outlet Node Name
  Coil:Heating:Water,                                      !- Component Object Type
  VAV Sys 1 Heating Coil,                                  !- Component Name
  VAV Sys 1 Cooling Coil Outlet,                           !- Component Inlet Node Name
  VAV Sys 1 Heating Coil Outlet,                           !- Component Outlet Node Name
  Fan:VariableVolume,                                      !- Component Object Type
  VAV Sys 1 Supply Fan,                                    !- Component Name
  VAV Sys 1 Heating Coil Outlet,                           !- Component Inlet Node Name
  VAV Sys 1 Supply Fan Outlet;                             !- Component Outlet Node Name

AirLoopHVAC:SupplyPath,
  VAV Sys 1 Supply Path,                                   !- Name
  VAV Sys 1 Supply Path Inlet,                             !- Supply Air Path Inlet Node Name
  AirLoopHVAC:ZoneSplitter,                                !- Component Object Type
  VAV Sys 1 Zone Splitter;                                 !- Component Name

AirLoopHVAC:ZoneSplitter,
  VAV Sys 1 Zone Splitter,                                 !- Name
  VAV Sys 1 Supply Path Inlet,                             !- Inlet Node Name
  Floor_1_AHU1 Zone Equip Inlet,                           !- Outlet Node Name
  Floor_2_AHU1 Zone Equip Inlet,                           !- Outlet Node Name
  Floor_3_AHU1 Zone Equip Inlet,                           !- Outlet Node Name
  Floor_4_AHU1 Zone Equip Inlet,                           !- Outlet Node Name
  Floor_5_AHU1 Zone Equip Inlet,                           !- Outlet Node Name
  Floor_6_AHU1 Zone Equip Inlet;                           !- Outlet Node Name

AirLoopHVAC:ReturnPath,
  VAV Sys 1 Return Path,                                   !- Name
  VAV Sys 1 Return Air Outlet,                             !- Return Air Path Outlet Node Name
  AirLoopHVAC:ZoneMixer,                                   !- Component Object Type
  VAV Sys 1 Zone Mixer;                                    !- Component Name

AirLoopHVAC:ZoneMixer,
  VAV Sys 1 Zone Mixer,                                    !- Name
  VAV Sys 1 Return Air Outlet,                             !- Outlet Node Name
  Floor_1_AHU1 Return Outlet,                              !- Inlet Node Name
  Floor_2_AHU1 Return Outlet,                              !- Inlet Node Name
  Floor_3_AHU1 Return Outlet,                              !- Inlet Node Name
  Floor_4_AHU1 Return Outlet,                              !- Inlet Node Name
  Floor_5_AHU1 Return Outlet,                              !- Inlet Node Name
  Floor_6_AHU1 Return Outlet;                              !- Inlet Node Name

AvailabilityManagerAssignmentList,
  VAV Sys 1 Availability Managers,                         !- Name
  AvailabilityManager:NightCycle,                          !- Availability Manager Object Type
  VAV Sys 1 Availability;                                  !- Availability Manager Name

AvailabilityManager:NightCycle,
  VAV Sys 1 Availability,                                  !- Name
  HVACTemplate-Always 1,                                   !- Applicability Schedule Name
  FanAvailSched,                                           !- Fan Schedule Name
  CycleOnAny,                                              !- Control Type
  0.2,                                                     !- Thermostat Tolerance {deltaC}
  FixedRunTime,                                            !- Cycling Run Time Control Type
  3600,                                                    !- Cycling run time {s}
  Floor_1_AHU1;                                            !- Control Zone Name

Schedule:Compact,
  HVACTemplate-Always 1,                                   !- Name
  HVACTemplate Any Number,                                 !- Schedule Type Limits Name
  Through: 12/31,                                          !- Field 1
  For: AllDays,                                            !- Field 2
  Until: 24:00,                                            !- Field 3
  1;                                                       !- Field 4

Schedule:Compact,
  HVACTemplate-Always 12.8,                                !- Name
  HVACTemplate Any Number,                                 !- Schedule Type Limits Name
  Through: 12/31,                                          !- Field 1
  For: AllDays,                                            !- Field 2
  Until: 24:00,                                            !- Field 3
  12.8;                                                    !- Field 4

Schedule:Compact,
  Dump_AHU1_DAT_SP,
  Temperature,
  Through: 1/31,
  For: AllDays,
  Until: 24:00,
  27.78,
  Through: 2/28,
  For: AllDays,
  Until: 24:00,
  1.11,
  Through: 3/31,
  For: AllDays,
  Until: 24:00,
  10.5,
  Through: 4/30,
  For: AllDays,
  Until: 24:00,
  10.5,
  Through: 5/31,
  For: AllDays,
  Until: 24:00,
  11.0,
  Through: 6/30,
  For: AllDays,
  Until: 24:00,
  9.5,
  Through: 7/31,
  For: AllDays,
  Until: 24:00,
  11.44,
  Through: 8/31,
  For: AllDays,
  Until: 24:00,
  11.67,
  Through: 9/30,
  For: AllDays,
  Until: 24:00,
  11.11,
  Through: 10/31,
  For: AllDays,
  Until: 24:00,
  15.5,
  Through: 11/30,
  For: AllDays,
  Until: 24:00,
  26.67,
  Through: 12/31,
  For: AllDays,
  Until: 24:00,
  27.78;

Schedule:Compact,
  Dump_AHU2_DAT_SP,
  Temperature,
  Through: 1/31,
  For: AllDays,
  Until: 24:00,
  27.78,
  Through: 2/28,
  For: AllDays,
  Until: 24:00,
  1.0,
  Through: 3/31,
  For: AllDays,
  Until: 24:00,
  6.8,
  Through: 4/30,
  For: AllDays,
  Until: 24:00,
  6.8,
  Through: 5/31,
  For: AllDays,
  Until: 24:00,
  7.2,
  Through: 6/30,
  For: AllDays,
  Until: 24:00,
  5.8,
  Through: 7/31,
  For: AllDays,
  Until: 24:00,
  7.55,
  Through: 8/31,
  For: AllDays,
  Until: 24:00,
  7.78,
  Through: 9/30,
  For: AllDays,
  Until: 24:00,
  7.22,
  Through: 10/31,
  For: AllDays,
  Until: 24:00,
  11.5,
  Through: 11/30,
  For: AllDays,
  Until: 24:00,
  26.67,
  Through: 12/31,
  For: AllDays,
  Until: 24:00,
  27.78;

SetpointManager:Scheduled,
  VAV Sys 1 Cooling Supply Air Temp Manager,               !- Name
  Temperature,                                             !- Control Variable
  Dump_AHU1_DAT_SP,  !- Schedule Name
  VAV Sys 1 Supply Fan Outlet;                             !- Setpoint Node or NodeList Name

Coil:Cooling:Water,
  VAV Sys 1 Cooling Coil,                                  !- Name
  ,                                                        !- Availability Schedule Name
  autosize,                                                !- Design Water Flow Rate {m3/s}
  autosize,                                                !- Design Air Flow Rate {m3/s}
  autosize,                                                !- Design Inlet Water Temperature {C}
  autosize,                                                !- Design Inlet Air Temperature {C}
  autosize,                                                !- Design Outlet Air Temperature {C}
  autosize,                                                !- Design Inlet Air Humidity Ratio {kg-H2O/kg-air}
  autosize,                                                !- Design Outlet Air Humidity Ratio {kg-H2O/kg-air}
  VAV Sys 1 Cooling Coil ChW Inlet,                        !- Water Inlet Node Name
  VAV Sys 1 Cooling Coil ChW Outlet,                       !- Water Outlet Node Name
  VAV Sys 1 Mixed Air Outlet,                              !- Air Inlet Node Name
  VAV Sys 1 Cooling Coil Outlet,                           !- Air Outlet Node Name
  DetailedAnalysis,                                        !- Type of Analysis
  CrossFlow;                                               !- Heat Exchanger Configuration

Controller:WaterCoil,
  VAV Sys 1 Cooling Coil Controller,                       !- Name
  Temperature,                                             !- Control Variable
  Reverse,                                                 !- Action
  Flow,                                                    !- Actuator Variable
  VAV Sys 1 Cooling Coil Outlet,                           !- Sensor Node Name
  VAV Sys 1 Cooling Coil ChW Inlet,                        !- Actuator Node Name
  autosize,                                                !- Controller Convergence Tolerance {deltaC}
  autosize,                                                !- Maximum Actuated Flow {m3/s}
  0;                                                       !- Minimum Actuated Flow {m3/s}

SetpointManager:MixedAir,
  VAV Sys 1 Cooling Coil Air Temp Manager,                 !- Name
  Temperature,                                             !- Control Variable
  VAV Sys 1 Supply Fan Outlet,                             !- Reference Setpoint Node Name
  VAV Sys 1 Heating Coil Outlet,                           !- Fan Inlet Node Name
  VAV Sys 1 Supply Fan Outlet,                             !- Fan Outlet Node Name
  VAV Sys 1 Mixed Air Nodes;                               !- Setpoint Node or NodeList Name

NodeList,
  VAV Sys 1 Mixed Air Nodes,                               !- Name
  VAV Sys 1 Cooling Coil Outlet,                           !- Node Name
  VAV Sys 1 Mixed Air Outlet;                              !- Node Name

Branch,
  VAV Sys 1 Cooling Coil ChW Branch,                       !- Name
  ,                                                        !- Pressure Drop Curve Name
  Coil:Cooling:Water,                                      !- Component Object Type
  VAV Sys 1 Cooling Coil,                                  !- Component Name
  VAV Sys 1 Cooling Coil ChW Inlet,                        !- Component Inlet Node Name
  VAV Sys 1 Cooling Coil ChW Outlet;                       !- Component Outlet Node Name

Coil:Heating:Water,
  VAV Sys 1 Heating Coil,                                  !- Name
  ,                                                        !- Availability Schedule Name
  autosize,                                                !- U-Factor Times Area Value {W/K}
  autosize,                                                !- Maximum Water Flow Rate {m3/s}
  VAV Sys 1 Heating Coil HW Inlet,                         !- Water Inlet Node Name
  VAV Sys 1 Heating Coil HW Outlet,                        !- Water Outlet Node Name
  VAV Sys 1 Cooling Coil Outlet,                           !- Air Inlet Node Name
  VAV Sys 1 Heating Coil Outlet,                           !- Air Outlet Node Name
  UFactorTimesAreaAndDesignWaterFlowRate,                  !- Performance Input Method
  autosize,                                                !- Rated Capacity
  82.2,                                                    !- Rated Inlet Water Temperature
  16.6,                                                    !- Rated Inlet Air Temperature
  71.1,                                                    !- Rated Outlet Water Temperature
  32.2,                                                    !- Rated Outlet Air Temperature
  0.5;                                                     !- Rated Ratio for Air and Water Convection

Branch,
  VAV Sys 1 Heating Coil HW Branch,                        !- Name
  ,                                                        !- Pressure Drop Curve Name
  Coil:Heating:Water,                                      !- Component Object Type
  VAV Sys 1 Heating Coil,                                  !- Component Name
  VAV Sys 1 Heating Coil HW Inlet,                         !- Component Inlet Node Name
  VAV Sys 1 Heating Coil HW Outlet;                        !- Component Outlet Node Name

Controller:WaterCoil,
  VAV Sys 1 Heating Coil Controller,                       !- Name
  Temperature,                                             !- Control Variable
  Normal,                                                  !- Action
  Flow,                                                    !- Actuator Variable
  VAV Sys 1 Heating Coil Outlet,                           !- Sensor Node Name
  VAV Sys 1 Heating Coil HW Inlet,                         !- Actuator Node Name
  autosize,                                                !- Controller Convergence Tolerance {deltaC}
  autosize,                                                !- Maximum Actuated Flow {m3/s}
  0;                                                       !- Minimum Actuated Flow {m3/s}

Schedule:Compact,
  HVACTemplate-Always 10.0,                                !- Name
  HVACTemplate Any Number,                                 !- Schedule Type Limits Name
  Through: 12/31,                                          !- Field 1
  For: AllDays,                                            !- Field 2
  Until: 24:00,                                            !- Field 3
  10.0;                                                    !- Field 4
! NOTE:  Heating supply air setpoint is placed on Supply Path Inlet node to allow separate heating and cooling setpoints.
! SetpointManager:MixedAir <system name> Heating Coil Air Temp Manager adjusts this setpoint for fan heat and places it on the Heating Coil Outlet

SetpointManager:Scheduled,
  VAV Sys 1 Heating Supply Air Temp Manager,               !- Name
  Temperature,                                             !- Control Variable
  HVACTemplate-Always 10.0,                                !- Schedule Name
  VAV Sys 1 Supply Path Inlet;                             !- Setpoint Node or NodeList Name

SetpointManager:MixedAir,
  VAV Sys 1 Heating Coil Air Temp Manager,                 !- Name
  Temperature,                                             !- Control Variable
  VAV Sys 1 Supply Path Inlet,                             !- Reference Setpoint Node Name
  VAV Sys 1 Heating Coil Outlet,                           !- Fan Inlet Node Name
  VAV Sys 1 Supply Fan Outlet,                             !- Fan Outlet Node Name
  VAV Sys 1 Heating Coil Outlet;                           !- Setpoint Node or NodeList Name

Fan:VariableVolume,
  VAV Sys 1 Supply Fan,                                    !- Name
  FanAvailSched,                                           !- Availability Schedule Name
  0.7,                                                     !- Fan Efficiency
  600,                                                     !- Pressure Rise {Pa}
  autosize,                                                !- Maximum Flow Rate {m3/s}
  Fraction,                                                !- Fan Power Minimum Flow Rate Input Method
  0.25,                                                    !- Fan Power Minimum Flow Fraction
  ,                                                        !- Fan Power Minimum Air Flow Rate {m3/s}
  0.9,                                                     !- Motor Efficiency
  1,                                                       !- Motor in Airstream Fraction
  0.35071223,                                              !- Fan Power Coefficient 1
  0.30850535,                                              !- Fan Power Coefficient 2
  -0.54137364,                                             !- Fan Power Coefficient 3
  0.87198823,                                              !- Fan Power Coefficient 4
  0,                                                       !- Fan Power Coefficient 5
  VAV Sys 1 Heating Coil Outlet,                           !- Air Inlet Node Name
  VAV Sys 1 Supply Fan Outlet;                             !- Air Outlet Node Name

OutdoorAir:NodeList,
  VAV Sys 1 Outside Air Inlet;                             !- Node or NodeList Name 1

AirLoopHVAC:OutdoorAirSystem,
  VAV Sys 1 OA System,                                     !- Name
  VAV Sys 1 OA System Controllers,                         !- Controller List Name
  VAV Sys 1 OA System Equipment;                           !- Outdoor Air Equipment List Name

AirLoopHVAC:ControllerList,
  VAV Sys 1 OA System Controllers,                         !- Name
  Controller:OutdoorAir,                                   !- Controller Object Type
  VAV Sys 1 OA Controller;                                 !- Controller Name

AirLoopHVAC:OutdoorAirSystem:EquipmentList,
  VAV Sys 1 OA System Equipment,                           !- Name
  OutdoorAir:Mixer,                                        !- Component Object Type
  VAV Sys 1 OA Mixing Box;                                 !- Component Name

OutdoorAir:Mixer,
  VAV Sys 1 OA Mixing Box,                                 !- Name
  VAV Sys 1 Mixed Air Outlet,                              !- Mixed Air Node Name
  VAV Sys 1 Outside Air Inlet,                             !- Outside Air Stream Node Name
  VAV Sys 1 Relief Air Outlet,                             !- Relief Air Stream Node Name
  VAV Sys 1 Air Loop Inlet;                                !- Return Air Stream Node Name

Controller:OutdoorAir,
  VAV Sys 1 OA Controller,                                 !- Name
  VAV Sys 1 Relief Air Outlet,                             !- Relief Air Outlet Node Name
  VAV Sys 1 Air Loop Inlet,                                !- Return Air Node Name
  VAV Sys 1 Mixed Air Outlet,                              !- Mixed Air Node Name
  VAV Sys 1 Outside Air Inlet,                             !- Actuator Node Name
  autosize,                                                !- Minimum Outdoor Air Flow Rate {m3/s}
  autosize,                                                !- Maximum Outdoor Air Flow Rate {m3/s}
  DifferentialDryBulb,                                     !- Economizer Control Type
  ModulateFlow,                                            !- Economizer Control Action Type
  19,                                                      !- Economizer Maximum Limit Dry-Bulb Temperature {C}
  ,                                                        !- Economizer Maximum Limit Enthalpy {J/kg}
  ,                                                        !- Economizer Maximum Limit Dewpoint Temperature (C)
  ,                                                        !- Electronic Enthalpy Limit Curve Name
  4,                                                       !- Economizer Minimum Limit Dry-Bulb Temperature {C}
  NoLockout,                                               !- Lockout Type
  FixedMinimum,                                            !- Minimum Limit Type
  Min OA Sched,                                            !- Minimum Outdoor Air Schedule Name
  ,                                                        !- Minimum Fraction of Outdoor Air Schedule Name
  ,                                                        !- Maximum Fraction of Outdoor Air Schedule Name
  ;                                                        !- Mechanical Ventilation Controller Name
! 
! Warning:  In HVACTemplate:System:VAV "VAV Sys 2" the Heating Coil Design Setpoint is greater than the Cooling Coil Design Setpoint. This may cause the heating coil and cooling coil to operate simultaneously. Check results carefully and adjust controls if needed.

Sizing:System,
  VAV Sys 2,                                               !- AirLoop Name
  Sensible,                                                !- Type of Load to Size On
  autosize,                                                !- Design Outdoor Air Flow Rate {m3/s}
  0.3,                                                     !- Central Heating Maximum System Air Flow Ratio
  7.2,                                                     !- Preheat Design Temperature {C}
  0.008,                                                   !- Preheat Design Humidity Ratio {kg-H2O/kg-air}
  11,                                                      !- Precool Design Temperature {C}
  0.008,                                                   !- Precool Design Humidity Ratio {kg-H2O/kg-air}
  8.89,                                                    !- Central Cooling Design Supply Air Temperature {C}
  10.0,                                                    !- Central Heating Design Supply Air Temperature {C}
  NonCoincident,                                           !- Type of Zone Sum to Use
  No,                                                      !- 100% Outdoor Air in Cooling
  No,                                                      !- 100% Outdoor Air in Heating
  0.008,                                                   !- Central Cooling Design Supply Air Humidity Ratio {kg-H2O/kg-air}
  0.008,                                                   !- Central Heating Design Supply Air Humidity Ratio {kg-H2O/kg-air}
  DesignDay,                                               !- Cooling Supply Air Flow Rate Method
  0,                                                       !- Cooling Supply Air Flow Rate {m3/s}
  ,                                                        !- Cooling Supply Air Flow Rate Per Floor Area {m3/s-m2}
  ,                                                        !- Cooling Fraction of Autosized Cooling Supply Air Flow Rate
  ,                                                        !- Cooling Supply Air Flow Rate Per Unit Cooling Capacity {m3/s-W}
  DesignDay,                                               !- Heating Supply Air Flow Rate Method
  0,                                                       !- Heating Supply Air Flow Rate {m3/s}
  ,                                                        !- Heating Supply Air Flow Rate Per Floor Area {m3/s-m2}
  ,                                                        !- Heating Fraction of Autosized Heating Supply Air Flow Rate
  ,                                                        !- Heating Fraction of Autosized Cooling Supply Air Flow Rate
  ,                                                        !- Heating Supply Air Flow Rate Per Unit Heating Capacity {m3/s-W}
  ZoneSum,                                                 !- System Outdoor Air Method
  1.0,                                                     !- Zone Maximum Outdoor Air Fraction
  CoolingDesignCapacity,                                   !- Cooling Design Capacity Method
  autosize,                                                !- Cooling Design Capacity {W}
  ,                                                        !- Cooling Design Capacity Per Floor Area {W/m2}
  ,                                                        !- Fraction of Autosized Cooling Design Capacity
  HeatingDesignCapacity,                                   !- Heating Design Capacity Method
  autosize,                                                !- Heating Design Capacity {W}
  ,                                                        !- Heating Design Capacity Per Floor Area {W/m2}
  ,                                                        !- Fraction of Autosized Heating Design Capacity
  OnOff;                                                   !- Central Cooling Capacity Control Method

AirLoopHVAC,
  VAV Sys 2,                                               !- Name
  VAV Sys 2 Controllers,                                   !- Controller List Name
  VAV Sys 2 Availability Managers,                         !- Availability Manager List Name
  autosize,                                                !- Design Supply Air Flow Rate {m3/s}
  VAV Sys 2 Branches,                                      !- Branch List Name
  ,                                                        !- Connector List Name
  VAV Sys 2 Air Loop Inlet,                                !- Supply Side Inlet Node Name
  VAV Sys 2 Return Air Outlet,                             !- Demand Side Outlet Node Name
  VAV Sys 2 Supply Path Inlet,                             !- Demand Side Inlet Node Names
  VAV Sys 2 Supply Fan Outlet;                             !- Supply Side Outlet Node Names

AirLoopHVAC:ControllerList,
  VAV Sys 2 Controllers,                                   !- Name
  Controller:WaterCoil,                                    !- Controller Object Type
  VAV Sys 2 Cooling Coil Controller,                       !- Controller Name
  Controller:WaterCoil,                                    !- Controller Object Type
  VAV Sys 2 Heating Coil Controller;                       !- Controller Name

BranchList,
  VAV Sys 2 Branches,                                      !- Name
  VAV Sys 2 Main Branch;                                   !- Branch Name

Branch,
  VAV Sys 2 Main Branch,                                   !- Name
  ,                                                        !- Pressure Drop Curve Name
  AirLoopHVAC:OutdoorAirSystem,                            !- Component Object Type
  VAV Sys 2 OA System,                                     !- Component Name
  VAV Sys 2 Air Loop Inlet,                                !- Component Inlet Node Name
  VAV Sys 2 Mixed Air Outlet,                              !- Component Outlet Node Name
  Coil:Cooling:Water,                                      !- Component Object Type
  VAV Sys 2 Cooling Coil,                                  !- Component Name
  VAV Sys 2 Mixed Air Outlet,                              !- Component Inlet Node Name
  VAV Sys 2 Cooling Coil Outlet,                           !- Component Outlet Node Name
  Coil:Heating:Water,                                      !- Component Object Type
  VAV Sys 2 Heating Coil,                                  !- Component Name
  VAV Sys 2 Cooling Coil Outlet,                           !- Component Inlet Node Name
  VAV Sys 2 Heating Coil Outlet,                           !- Component Outlet Node Name
  Fan:VariableVolume,                                      !- Component Object Type
  VAV Sys 2 Supply Fan,                                    !- Component Name
  VAV Sys 2 Heating Coil Outlet,                           !- Component Inlet Node Name
  VAV Sys 2 Supply Fan Outlet;                             !- Component Outlet Node Name

AirLoopHVAC:SupplyPath,
  VAV Sys 2 Supply Path,                                   !- Name
  VAV Sys 2 Supply Path Inlet,                             !- Supply Air Path Inlet Node Name
  AirLoopHVAC:ZoneSplitter,                                !- Component Object Type
  VAV Sys 2 Zone Splitter;                                 !- Component Name

AirLoopHVAC:ZoneSplitter,
  VAV Sys 2 Zone Splitter,                                 !- Name
  VAV Sys 2 Supply Path Inlet,                             !- Inlet Node Name
  Floor_1_AHU2 Zone Equip Inlet,                           !- Outlet Node Name
  Floor_2_AHU2 Zone Equip Inlet,                           !- Outlet Node Name
  Floor_3_AHU2 Zone Equip Inlet,                           !- Outlet Node Name
  Floor_4_AHU2 Zone Equip Inlet,                           !- Outlet Node Name
  Floor_5_AHU2 Zone Equip Inlet,                           !- Outlet Node Name
  Floor_6_AHU2 Zone Equip Inlet;                           !- Outlet Node Name

AirLoopHVAC:ReturnPath,
  VAV Sys 2 Return Path,                                   !- Name
  VAV Sys 2 Return Air Outlet,                             !- Return Air Path Outlet Node Name
  AirLoopHVAC:ZoneMixer,                                   !- Component Object Type
  VAV Sys 2 Zone Mixer;                                    !- Component Name

AirLoopHVAC:ZoneMixer,
  VAV Sys 2 Zone Mixer,                                    !- Name
  VAV Sys 2 Return Air Outlet,                             !- Outlet Node Name
  Floor_1_AHU2 Return Outlet,                              !- Inlet Node Name
  Floor_2_AHU2 Return Outlet,                              !- Inlet Node Name
  Floor_3_AHU2 Return Outlet,                              !- Inlet Node Name
  Floor_4_AHU2 Return Outlet,                              !- Inlet Node Name
  Floor_5_AHU2 Return Outlet,                              !- Inlet Node Name
  Floor_6_AHU2 Return Outlet;                              !- Inlet Node Name

AvailabilityManagerAssignmentList,
  VAV Sys 2 Availability Managers,                         !- Name
  AvailabilityManager:NightCycle,                          !- Availability Manager Object Type
  VAV Sys 2 Availability;                                  !- Availability Manager Name

AvailabilityManager:NightCycle,
  VAV Sys 2 Availability,                                  !- Name
  HVACTemplate-Always 1,                                   !- Applicability Schedule Name
  FanAvailSched,                                           !- Fan Schedule Name
  CycleOnAny,                                              !- Control Type
  0.2,                                                     !- Thermostat Tolerance {deltaC}
  FixedRunTime,                                            !- Cycling Run Time Control Type
  3600,                                                    !- Cycling run time {s}
  Floor_1_AHU2;                                            !- Control Zone Name

Schedule:Compact,
  HVACTemplate-Always 8.89,                                !- Name
  HVACTemplate Any Number,                                 !- Schedule Type Limits Name
  Through: 12/31,                                          !- Field 1
  For: AllDays,                                            !- Field 2
  Until: 24:00,                                            !- Field 3
  8.89;                                                    !- Field 4

SetpointManager:Scheduled,
  VAV Sys 2 Cooling Supply Air Temp Manager,               !- Name
  Temperature,                                             !- Control Variable
  Dump_AHU2_DAT_SP,  !- Schedule Name
  VAV Sys 2 Supply Fan Outlet;                             !- Setpoint Node or NodeList Name

Coil:Cooling:Water,
  VAV Sys 2 Cooling Coil,                                  !- Name
  ,                                                        !- Availability Schedule Name
  autosize,                                                !- Design Water Flow Rate {m3/s}
  autosize,                                                !- Design Air Flow Rate {m3/s}
  autosize,                                                !- Design Inlet Water Temperature {C}
  autosize,                                                !- Design Inlet Air Temperature {C}
  autosize,                                                !- Design Outlet Air Temperature {C}
  autosize,                                                !- Design Inlet Air Humidity Ratio {kg-H2O/kg-air}
  autosize,                                                !- Design Outlet Air Humidity Ratio {kg-H2O/kg-air}
  VAV Sys 2 Cooling Coil ChW Inlet,                        !- Water Inlet Node Name
  VAV Sys 2 Cooling Coil ChW Outlet,                       !- Water Outlet Node Name
  VAV Sys 2 Mixed Air Outlet,                              !- Air Inlet Node Name
  VAV Sys 2 Cooling Coil Outlet,                           !- Air Outlet Node Name
  DetailedAnalysis,                                        !- Type of Analysis
  CrossFlow;                                               !- Heat Exchanger Configuration

Controller:WaterCoil,
  VAV Sys 2 Cooling Coil Controller,                       !- Name
  Temperature,                                             !- Control Variable
  Reverse,                                                 !- Action
  Flow,                                                    !- Actuator Variable
  VAV Sys 2 Cooling Coil Outlet,                           !- Sensor Node Name
  VAV Sys 2 Cooling Coil ChW Inlet,                        !- Actuator Node Name
  autosize,                                                !- Controller Convergence Tolerance {deltaC}
  autosize,                                                !- Maximum Actuated Flow {m3/s}
  0;                                                       !- Minimum Actuated Flow {m3/s}

SetpointManager:MixedAir,
  VAV Sys 2 Cooling Coil Air Temp Manager,                 !- Name
  Temperature,                                             !- Control Variable
  VAV Sys 2 Supply Fan Outlet,                             !- Reference Setpoint Node Name
  VAV Sys 2 Heating Coil Outlet,                           !- Fan Inlet Node Name
  VAV Sys 2 Supply Fan Outlet,                             !- Fan Outlet Node Name
  VAV Sys 2 Mixed Air Nodes;                               !- Setpoint Node or NodeList Name

NodeList,
  VAV Sys 2 Mixed Air Nodes,                               !- Name
  VAV Sys 2 Cooling Coil Outlet,                           !- Node Name
  VAV Sys 2 Mixed Air Outlet;                              !- Node Name

Branch,
  VAV Sys 2 Cooling Coil ChW Branch,                       !- Name
  ,                                                        !- Pressure Drop Curve Name
  Coil:Cooling:Water,                                      !- Component Object Type
  VAV Sys 2 Cooling Coil,                                  !- Component Name
  VAV Sys 2 Cooling Coil ChW Inlet,                        !- Component Inlet Node Name
  VAV Sys 2 Cooling Coil ChW Outlet;                       !- Component Outlet Node Name

Coil:Heating:Water,
  VAV Sys 2 Heating Coil,                                  !- Name
  ,                                                        !- Availability Schedule Name
  autosize,                                                !- U-Factor Times Area Value {W/K}
  autosize,                                                !- Maximum Water Flow Rate {m3/s}
  VAV Sys 2 Heating Coil HW Inlet,                         !- Water Inlet Node Name
  VAV Sys 2 Heating Coil HW Outlet,                        !- Water Outlet Node Name
  VAV Sys 2 Cooling Coil Outlet,                           !- Air Inlet Node Name
  VAV Sys 2 Heating Coil Outlet,                           !- Air Outlet Node Name
  UFactorTimesAreaAndDesignWaterFlowRate,                  !- Performance Input Method
  autosize,                                                !- Rated Capacity
  82.2,                                                    !- Rated Inlet Water Temperature
  16.6,                                                    !- Rated Inlet Air Temperature
  71.1,                                                    !- Rated Outlet Water Temperature
  32.2,                                                    !- Rated Outlet Air Temperature
  0.5;                                                     !- Rated Ratio for Air and Water Convection

Branch,
  VAV Sys 2 Heating Coil HW Branch,                        !- Name
  ,                                                        !- Pressure Drop Curve Name
  Coil:Heating:Water,                                      !- Component Object Type
  VAV Sys 2 Heating Coil,                                  !- Component Name
  VAV Sys 2 Heating Coil HW Inlet,                         !- Component Inlet Node Name
  VAV Sys 2 Heating Coil HW Outlet;                        !- Component Outlet Node Name

Controller:WaterCoil,
  VAV Sys 2 Heating Coil Controller,                       !- Name
  Temperature,                                             !- Control Variable
  Normal,                                                  !- Action
  Flow,                                                    !- Actuator Variable
  VAV Sys 2 Heating Coil Outlet,                           !- Sensor Node Name
  VAV Sys 2 Heating Coil HW Inlet,                         !- Actuator Node Name
  autosize,                                                !- Controller Convergence Tolerance {deltaC}
  autosize,                                                !- Maximum Actuated Flow {m3/s}
  0;                                                       !- Minimum Actuated Flow {m3/s}
! NOTE:  Heating supply air setpoint is placed on Supply Path Inlet node to allow separate heating and cooling setpoints.
! SetpointManager:MixedAir <system name> Heating Coil Air Temp Manager adjusts this setpoint for fan heat and places it on the Heating Coil Outlet

SetpointManager:Scheduled,
  VAV Sys 2 Heating Supply Air Temp Manager,               !- Name
  Temperature,                                             !- Control Variable
  HVACTemplate-Always 10.0,                                !- Schedule Name
  VAV Sys 2 Supply Path Inlet;                             !- Setpoint Node or NodeList Name

SetpointManager:MixedAir,
  VAV Sys 2 Heating Coil Air Temp Manager,                 !- Name
  Temperature,                                             !- Control Variable
  VAV Sys 2 Supply Path Inlet,                             !- Reference Setpoint Node Name
  VAV Sys 2 Heating Coil Outlet,                           !- Fan Inlet Node Name
  VAV Sys 2 Supply Fan Outlet,                             !- Fan Outlet Node Name
  VAV Sys 2 Heating Coil Outlet;                           !- Setpoint Node or NodeList Name

Fan:VariableVolume,
  VAV Sys 2 Supply Fan,                                    !- Name
  FanAvailSched,                                           !- Availability Schedule Name
  0.7,                                                     !- Fan Efficiency
  600,                                                     !- Pressure Rise {Pa}
  autosize,                                                !- Maximum Flow Rate {m3/s}
  Fraction,                                                !- Fan Power Minimum Flow Rate Input Method
  0.25,                                                    !- Fan Power Minimum Flow Fraction
  ,                                                        !- Fan Power Minimum Air Flow Rate {m3/s}
  0.9,                                                     !- Motor Efficiency
  1,                                                       !- Motor in Airstream Fraction
  0.35071223,                                              !- Fan Power Coefficient 1
  0.30850535,                                              !- Fan Power Coefficient 2
  -0.54137364,                                             !- Fan Power Coefficient 3
  0.87198823,                                              !- Fan Power Coefficient 4
  0,                                                       !- Fan Power Coefficient 5
  VAV Sys 2 Heating Coil Outlet,                           !- Air Inlet Node Name
  VAV Sys 2 Supply Fan Outlet;                             !- Air Outlet Node Name

OutdoorAir:NodeList,
  VAV Sys 2 Outside Air Inlet;                             !- Node or NodeList Name 1

AirLoopHVAC:OutdoorAirSystem,
  VAV Sys 2 OA System,                                     !- Name
  VAV Sys 2 OA System Controllers,                         !- Controller List Name
  VAV Sys 2 OA System Equipment;                           !- Outdoor Air Equipment List Name

AirLoopHVAC:ControllerList,
  VAV Sys 2 OA System Controllers,                         !- Name
  Controller:OutdoorAir,                                   !- Controller Object Type
  VAV Sys 2 OA Controller;                                 !- Controller Name

AirLoopHVAC:OutdoorAirSystem:EquipmentList,
  VAV Sys 2 OA System Equipment,                           !- Name
  OutdoorAir:Mixer,                                        !- Component Object Type
  VAV Sys 2 OA Mixing Box;                                 !- Component Name

OutdoorAir:Mixer,
  VAV Sys 2 OA Mixing Box,                                 !- Name
  VAV Sys 2 Mixed Air Outlet,                              !- Mixed Air Node Name
  VAV Sys 2 Outside Air Inlet,                             !- Outside Air Stream Node Name
  VAV Sys 2 Relief Air Outlet,                             !- Relief Air Stream Node Name
  VAV Sys 2 Air Loop Inlet;                                !- Return Air Stream Node Name

Controller:OutdoorAir,
  VAV Sys 2 OA Controller,                                 !- Name
  VAV Sys 2 Relief Air Outlet,                             !- Relief Air Outlet Node Name
  VAV Sys 2 Air Loop Inlet,                                !- Return Air Node Name
  VAV Sys 2 Mixed Air Outlet,                              !- Mixed Air Node Name
  VAV Sys 2 Outside Air Inlet,                             !- Actuator Node Name
  autosize,                                                !- Minimum Outdoor Air Flow Rate {m3/s}
  autosize,                                                !- Maximum Outdoor Air Flow Rate {m3/s}
  DifferentialDryBulb,                                     !- Economizer Control Type
  ModulateFlow,                                            !- Economizer Control Action Type
  19,                                                      !- Economizer Maximum Limit Dry-Bulb Temperature {C}
  ,                                                        !- Economizer Maximum Limit Enthalpy {J/kg}
  ,                                                        !- Economizer Maximum Limit Dewpoint Temperature (C)
  ,                                                        !- Electronic Enthalpy Limit Curve Name
  4,                                                       !- Economizer Minimum Limit Dry-Bulb Temperature {C}
  NoLockout,                                               !- Lockout Type
  FixedMinimum,                                            !- Minimum Limit Type
  Min OA Sched,                                            !- Minimum Outdoor Air Schedule Name
  ,                                                        !- Minimum Fraction of Outdoor Air Schedule Name
  ,                                                        !- Maximum Fraction of Outdoor Air Schedule Name
  ;                                                        !- Mechanical Ventilation Controller Name

Boiler:HotWater,
  Main Boiler,                                             !- Name
  NaturalGas,                                              !- Fuel Type
  autosize,                                                !- Nominal Capacity {W}
  0.8,                                                     !- Nominal Thermal Efficiency
  LeavingBoiler,                                           !- Efficiency Curve Temperature Evaluation Variable
  Main Boiler Efficiency Curve,                            !- Normalized Boiler Efficiency Curve Name
  autosize,                                                !- Max Design Boiler Water Flow Rate {m3/s}
  0.0,                                                     !- Minimum Part Load Ratio
  1.1,                                                     !- Maximum Part Load Ratio
  1.0,                                                     !- Optimum Part Load Ratio
  Main Boiler HW Inlet,                                    !- Water Inlet Node Name
  Main Boiler HW Outlet,                                   !- Water Outlet Node Name
  100.0,                                                   !- Temp Upper Limit Water Outlet {C}
  ConstantFlow,                                            !- Boiler Flow Mode
  0,                                                       !- On Cycle Parasitic Electric Load {W}
  1.0;                                                     !- Sizing Factor

Curve:Quadratic,
  Main Boiler Efficiency Curve,                            !- Name
  0.97,                                                    !- Coefficient1 Constant
  0.0633,                                                  !- Coefficient2 x
  -0.0333,                                                 !- Coefficient3 x**2
  0.0,                                                     !- Minimum Value of x
  1.0;                                                     !- Maximum Value of x

Branch,
  Main Boiler HW Branch,                                   !- Name
  ,                                                        !- Pressure Drop Curve Name
  Boiler:HotWater,                                         !- Component Object Type
  Main Boiler,                                             !- Component Name
  Main Boiler HW Inlet,                                    !- Component Inlet Node Name
  Main Boiler HW Outlet;                                   !- Component Outlet Node Name

Chiller:Electric:EIR,
  Main Chiller,                                            !- Name
  autosize,                                                !- Reference Capacity {W}
  3.2,                                                     !- Reference COP {W/W}
  6.67,                                                    !- Reference Leaving Chilled Water Temperature {C}
  29.4,                                                    !- Reference Entering Condenser Fluid Temperature {C}
  autosize,                                                !- Reference Evaporator Volumetric Water Flow Rate {m3/s}
  autosize,                                                !- Reference Condenser Volumetric Water Flow Rate {m3/s}
  Main Chiller RecipCapFT,                                 !- Cooling Capacity Function of Temperature Curve Name
  Main Chiller RecipEIRFT,                                 !- Electric Input to Cooling Output Ratio Function of Temperature Curve Name
  Main Chiller RecipEIRFPLR,                               !- Electric Input to Cooling Output Ratio Function of Part Load Ratio Curve Name
  0.0,                                                     !- Minimum Part Load Ratio
  1.0,                                                     !- Maximum Part Load Ratio
  1.0,                                                     !- Optimum Part Load Ratio
  0.25,                                                    !- Minimum Unloading Ratio
  Main Chiller ChW Inlet,                                  !- Chilled Water Inlet Node Name
  Main Chiller ChW Outlet,                                 !- Chilled Water Outlet Node Name
  Main Chiller Cnd Inlet,                                  !- Condenser Inlet Node Name
  Main Chiller Cnd Outlet,                                 !- Condenser Outlet Node Name
  WaterCooled,                                             !- Condenser Type
  ,                                                        !- Condenser Fan Power Ratio {W/W}
  1,                                                       !- Compressor Motor Efficiency
  5.0,                                                     !- Leaving Chilled Water Lower Temperature Limit {C}
  ConstantFlow,                                            !- Chiller Flow Mode
  0,                                                       !- Design Heat Recovery Water Flow Rate {m3/s}
  ,                                                        !- Heat Recovery Inlet Node Name
  ,                                                        !- Heat Recovery Outlet Node Name
  1.0;                                                     !- Sizing Factor

Branch,
  Main Chiller ChW Branch,                                 !- Name
  ,                                                        !- Pressure Drop Curve Name
  Chiller:Electric:EIR,                                    !- Component Object Type
  Main Chiller,                                            !- Component Name
  Main Chiller ChW Inlet,                                  !- Component Inlet Node Name
  Main Chiller ChW Outlet;                                 !- Component Outlet Node Name

Branch,
  Main Chiller CndW Branch,                                !- Name
  ,                                                        !- Pressure Drop Curve Name
  Chiller:Electric:EIR,                                    !- Component Object Type
  Main Chiller,                                            !- Component Name
  Main Chiller Cnd Inlet,                                  !- Component Inlet Node Name
  Main Chiller Cnd Outlet;                                 !- Component Outlet Node Name

Curve:Biquadratic,
! Cooling Capacity Function of Temperature Curve for open or hermetic water-cooled reciprocating chillers
! Same as DOE-2.1E HERM-REC-CAP-FT (CCAPT4) and OPEN-REC-CAP-FT (CCAPT2)
  Main Chiller RecipCapFT,                                 !- Name
  0.507883,                                                !- Coefficient1 Constant
  0.145228,                                                !- Coefficient2 x
  -0.00625644,                                             !- Coefficient3 x**2
  -0.0011178,                                              !- Coefficient4 y
  -0.0001296,                                              !- Coefficient5 y**2
  -0.00028188,                                             !- Coefficient6 x*y
  5,                                                       !- Minimum Value of x
  10,                                                      !- Maximum Value of x
  24,                                                      !- Minimum Value of y
  35;                                                      !- Maximum Value of y

Curve:Biquadratic,
! Energy Input to Cooling Output Ratio Function of Temperature Curve for open or hermetic water-cooled reciprocating chillers
! Same as DOE-2.1E HERM-REC-EIR-FT (EIRT4) and OPEN-REC-EIR-FT (EIRT2)
  Main Chiller RecipEIRFT,                                 !- Name
  1.03076,                                                 !- Coefficient1 Constant
  -0.103536,                                               !- Coefficient2 x
  0.00710208,                                              !- Coefficient3 x**2
  0.0093186,                                               !- Coefficient4 y
  0.00031752,                                              !- Coefficient5 y**2
  -0.00104328,                                             !- Coefficient6 x*y
  5,                                                       !- Minimum Value of x
  10,                                                      !- Maximum Value of x
  24,                                                      !- Minimum Value of y
  35;                                                      !- Maximum Value of y

Curve:Quadratic,
! Energy Input to Cooling Output Ratio Function of Part Load Ratio Curve for open or hermetic water-cooled reciprocating chillers
! Same as DOE-2.1E HERM-REC-EIR-FPLR (EIRPLR4) and OPEN-REC-EIR-FPLR (EIRPLR2)
  Main Chiller RecipEIRFPLR,                               !- Name
  0.088065,                                                !- Coefficient1 Constant
  1.137742,                                                !- Coefficient2 x
  -0.225806,                                               !- Coefficient3 x**2
  0,                                                       !- Minimum Value of x
  1;                                                       !- Maximum Value of x

CoolingTower:SingleSpeed,
  Main Tower,                                              !- Name
  Main Tower CndW Inlet,                                   !- Water Inlet Node Name
  Main Tower CndW Outlet,                                  !- Water Outlet Node Name
  autosize,                                                !- Design Water Flow Rate {m3/s}
  autosize,                                                !- Design Air Flow Rate {m3/s}
  autosize,                                                !- Design Fan Power {W}
  autosize,                                                !- Design U-Factor Times Area Value {W/K}
  autocalculate,                                           !- Free Convection Air Flow Rate {m3/s}
  ,                                                        !- Free Convection Air Flow Sizing Factor
  autocalculate,                                           !- Free Convection U-Factor Times Area Value {W/K}
  ,                                                        !- Free Convection U-Factor Times Area Value Sizing Factor
  UFactorTimesAreaAndDesignWaterFlowRate,                  !- Performance Input Method
  ,                                                        !- Heat Rejection Capacity and Nominal Capacity Sizing Ratio
  ,                                                        !- Nominal Capacity {W}
  autocalculate,                                           !- Free Convection Capacity {W}
  ,                                                        !- Free Convection Nominal Capacity Sizing Factor
  ,                                                        !- Design Inlet Air Dry-Bulb Temperature {C}
  ,                                                        !- Design Inlet Air Wet-Bulb Temperature {C}
  ,                                                        !- Design Approach Temperature {deltaT}
  ,                                                        !- Design Range Temperature {deltaT}
  ,                                                        !- Basin Heater Capacity {W/K}
  ,                                                        !- Basin Heater Setpoint Temperature {C}
  ,                                                        !- Basin Heater Operating Schedule Name
  SaturatedExit,                                           !- Evaporation Loss Mode
  ,                                                        !- Evaporation Loss Factor {percent/K}
  0.008,                                                   !- Drift Loss Percent {percent}
  ConcentrationRatio,                                      !- Blowdown Calculation Mode
  3,                                                       !- Blowdown Concentration Ratio
  ,                                                        !- Blowdown Makeup Water Usage Schedule Name
  ,                                                        !- Supply Water Storage Tank Name
  Main Tower Cooling Tower Outdoor Air Inlet Node,         !- Outdoor Air Inlet Node Name
  FanCycling,                                              !- Capacity Control
  ,                                                        !- Number of Cells
  ,                                                        !- Cell Control
  ,                                                        !- Cell Minimum  Water Flow Rate Fraction
  ,                                                        !- Cell Maximum Water Flow Rate Fraction
  1.0;                                                     !- Sizing Factor

OutdoorAir:Node,
  Main Tower Cooling Tower Outdoor Air Inlet Node,         !- Name
  -1;                                                      !- Height Above Ground

Branch,
  Main Tower CndW Branch,                                  !- Name
  ,                                                        !- Pressure Drop Curve Name
  CoolingTower:SingleSpeed,                                !- Component Object Type
  Main Tower,                                              !- Component Name
  Main Tower CndW Inlet,                                   !- Component Inlet Node Name
  Main Tower CndW Outlet;                                  !- Component Outlet Node Name

Sizing:Plant,
  Hot Water Loop Hot Water Loop,                           !- Plant or Condenser Loop Name
  Heating,                                                 !- Loop Type
  82,                                                      !- Design loop exit temperature {C}
  11.0;                                                    !- Design loop delta T {deltaC}

PlantLoop,
  Hot Water Loop Hot Water Loop,                           !- Name
  Water,                                                   !- Fluid Type
  ,                                                        !- User Defined Fluid Type
  Hot Water Loop Operation,                                !- PlantEquipmentOperationSchemes Name
  Hot Water Loop HW Supply Outlet,                         !- Loop Temperature Setpoint Node Name
  100,                                                     !- Maximum Loop Temperature {C}
  10,                                                      !- Minimum Loop Temperature {C}
  autosize,                                                !- Maximum Loop Volumetric Flow Rate {m3/s}
  0,                                                       !- Minimum Loop Volumetric Flow Rate {m3/s}
  autosize,                                                !- volume of the plant loop {m3}
  Hot Water Loop HW Supply Inlet,                          !- Plant Side Inlet Node Name
  Hot Water Loop HW Supply Outlet,                         !- Plant Side Outlet Node Name
  Hot Water Loop HW Supply Side Branches,                  !- Plant Side Branch List Name
  Hot Water Loop HW Supply Side Connectors,                !- Plant Side Connector List Name
  Hot Water Loop HW Demand Inlet,                          !- Demand Side Inlet Node Name
  Hot Water Loop HW Demand Outlet,                         !- Demand Side Outlet Node Name
  Hot Water Loop HW Demand Side Branches,                  !- Demand Side Branch List Name
  Hot Water Loop HW Demand Side Connectors,                !- Demand Side Connector List Name
  SequentialLoad,                                          !- Load Distribution Scheme
  Hot Water Loop Availability List,                                                        !- AvailabilityManagerAssignmentList
  SingleSetpoint;                                          !- Plant Loop Demand Calculation Scheme

PlantEquipmentOperationSchemes,
  Hot Water Loop Operation,                                !- Name
  PlantEquipmentOperation:HeatingLoad,                     !- Control Scheme Object Type
  Hot Water Loop Operation All Hours,                      !- Control Scheme Name
  HVACTemplate-Always 1;                                   !- Control Scheme Schedule Name

PlantEquipmentOperation:HeatingLoad,
  Hot Water Loop Operation All Hours,                      !- Name
  0,                                                       !- Load Range Lower Limit 1 {W}
  1000000000000000,                                        !- Load Range Upper Limit 1 {W}
  Hot Water Loop All Equipment;                            !- Priority Control 1 Equipment List Name

PlantEquipmentList,
  Hot Water Loop All Equipment,                            !- Name
  Boiler:HotWater,                                         !- Equipment Object Type
  Main Boiler;                                             !- Equipment Name

NodeList,
  Hot Water Loop HW Supply Setpoint Nodes,                 !- Name
  Main Boiler HW Outlet,                                   !- Node Name
  Hot Water Loop HW Supply Outlet;                         !- Node Name

SetpointManager:OutdoorAirReset,
  Hot Water Loop HW Temp Manager,                          !- Name
  Temperature,                                             !- Control Variable
  82.2,                                                    !- Set point at outside low {C}
  -6.7,                                                    !- Outside low {C}
  36.0,                                                    !- Set point at outside high {C}
  10,                                                      !- Outside high {C}
  Hot Water Loop HW Supply Setpoint Nodes;                 !- Setpoint Node or NodeList Name

BranchList,
  Hot Water Loop HW Supply Side Branches,                  !- Name
  Hot Water Loop HW Supply Inlet Branch,                   !- Name
  Main Boiler HW Branch,                                   !- Branch Name
  Hot Water Loop HW Supply Bypass Branch,                  !- Name
  Hot Water Loop HW Supply Outlet Branch;                  !- Name

ConnectorList,
  Hot Water Loop HW Supply Side Connectors,                !- Name
  Connector:Splitter,                                      !- Connector Object Type
  Hot Water Loop HW Supply Splitter,                       !- Connector Name
  Connector:Mixer,                                         !- Connector Object Type
  Hot Water Loop HW Supply Mixer;                          !- Connector Name

Connector:Splitter,
  Hot Water Loop HW Supply Splitter,                       !- Name
  Hot Water Loop HW Supply Inlet Branch,                   !- Inlet Branch Name
  Main Boiler HW Branch,                                   !- Outlet Branch Name
  Hot Water Loop HW Supply Bypass Branch;                  !- Outlet Branch Name

Connector:Mixer,
  Hot Water Loop HW Supply Mixer,                          !- Name
  Hot Water Loop HW Supply Outlet Branch,                  !- Outlet Branch Name
  Main Boiler HW Branch,                                   !- Outlet Branch Name
  Hot Water Loop HW Supply Bypass Branch;                  !- Inlet Branch Name

Branch,
  Hot Water Loop HW Supply Bypass Branch,                  !- Name
  ,                                                        !- Pressure Drop Curve Name
  Pipe:Adiabatic,                                          !- Component Object Type
  Hot Water Loop HW Supply Side Bypass Pipe,               !- Component Name
  Hot Water Loop HW Supply Bypass Inlet,                   !- Component Inlet Node Name
  Hot Water Loop HW Supply Bypass Outlet;                  !- Component Outlet Node Name

Pipe:Adiabatic,
  Hot Water Loop HW Supply Side Bypass Pipe,               !- Name
  Hot Water Loop HW Supply Bypass Inlet,                   !- Inlet Node Name
  Hot Water Loop HW Supply Bypass Outlet;                  !- Outlet Node Name

Pump:ConstantSpeed,
  Hot Water Loop HW Supply Pump,                           !- Name
  Hot Water Loop HW Supply Inlet,                          !- Inlet Node Name
  Hot Water Loop HW Pump Outlet,                           !- Outlet Node Name
  autosize,                                                !- Rated Volumetric Flow Rate {m3/s}
  179352,                                                  !- Rated Pump Head {Pa}
  autosize,                                                !- Rated Power Consumption {W}
  0.9,                                                     !- Motor Efficiency
  0,                                                       !- Fraction of Motor Inefficiencies to Fluid Stream
  INTERMITTENT,                                            !- Pump Control Type
  ;                                                        !- Pump Flow Rate Schedule Name

Branch,
  Hot Water Loop HW Supply Inlet Branch,                   !- Name
  ,                                                        !- Pressure Drop Curve Name
  Pump:ConstantSpeed,                                      !- Component Object Type
  Hot Water Loop HW Supply Pump,                           !- Component Name
  Hot Water Loop HW Supply Inlet,                          !- Component Inlet Node Name
  Hot Water Loop HW Pump Outlet;                           !- Component Outlet Node Name

Branch,
  Hot Water Loop HW Supply Outlet Branch,                  !- Name
  ,                                                        !- Pressure Drop Curve Name
  Pipe:Adiabatic,                                          !- Component Object Type
  Hot Water Loop HW Supply Outlet Pipe,                    !- Component Name
  Hot Water Loop HW Supply Outlet Pipe Inlet,              !- Component Inlet Node Name
  Hot Water Loop HW Supply Outlet;                         !- Component Outlet Node Name

Pipe:Adiabatic,
  Hot Water Loop HW Supply Outlet Pipe,                    !- Name
  Hot Water Loop HW Supply Outlet Pipe Inlet,              !- Inlet Node Name
  Hot Water Loop HW Supply Outlet;                         !- Outlet Node Name

BranchList,
  Hot Water Loop HW Demand Side Branches,                  !- Name
  Hot Water Loop HW Demand Inlet Branch,                   !- Name
  Floor_1_AHU1 Reheat Coil HW Branch,                      !- Name
  Floor_2_AHU1 Reheat Coil HW Branch,                      !- Name
  Floor_3_AHU1 Reheat Coil HW Branch,                      !- Name
  Floor_4_AHU1 Reheat Coil HW Branch,                      !- Name
  Floor_5_AHU1 Reheat Coil HW Branch,                      !- Name
  Floor_6_AHU1 Reheat Coil HW Branch,                      !- Name
  Floor_1_AHU2 Reheat Coil HW Branch,                      !- Name
  Floor_2_AHU2 Reheat Coil HW Branch,                      !- Name
  Floor_3_AHU2 Reheat Coil HW Branch,                      !- Name
  Floor_4_AHU2 Reheat Coil HW Branch,                      !- Name
  Floor_5_AHU2 Reheat Coil HW Branch,                      !- Name
  Floor_6_AHU2 Reheat Coil HW Branch,                      !- Name
  VAV Sys 1 Heating Coil HW Branch,                        !- Name
  VAV Sys 2 Heating Coil HW Branch,                        !- Name
  Hot Water Loop HW Demand Bypass Branch,                  !- Name
  Hot Water Loop HW Demand Outlet Branch;                  !- Name

ConnectorList,
  Hot Water Loop HW Demand Side Connectors,                !- Name
  Connector:Splitter,                                      !- Connector Object Type
  Hot Water Loop HW Demand Splitter,                       !- Connector Name
  Connector:Mixer,                                         !- Connector Object Type
  Hot Water Loop HW Demand Mixer;                          !- Connector Name

Connector:Splitter,
  Hot Water Loop HW Demand Splitter,                       !- Name
  Hot Water Loop HW Demand Inlet Branch,                   !- Inlet Branch Name
  Hot Water Loop HW Demand Bypass Branch,                  !- Outlet Branch Name
  Floor_1_AHU1 Reheat Coil HW Branch,                      !- Name
  Floor_2_AHU1 Reheat Coil HW Branch,                      !- Name
  Floor_3_AHU1 Reheat Coil HW Branch,                      !- Name
  Floor_4_AHU1 Reheat Coil HW Branch,                      !- Name
  Floor_5_AHU1 Reheat Coil HW Branch,                      !- Name
  Floor_6_AHU1 Reheat Coil HW Branch,                      !- Name
  Floor_1_AHU2 Reheat Coil HW Branch,                      !- Name
  Floor_2_AHU2 Reheat Coil HW Branch,                      !- Name
  Floor_3_AHU2 Reheat Coil HW Branch,                      !- Name
  Floor_4_AHU2 Reheat Coil HW Branch,                      !- Name
  Floor_5_AHU2 Reheat Coil HW Branch,                      !- Name
  Floor_6_AHU2 Reheat Coil HW Branch,                      !- Name
  VAV Sys 1 Heating Coil HW Branch,                        !- Name
  VAV Sys 2 Heating Coil HW Branch;                        !- Name

Connector:Mixer,
  Hot Water Loop HW Demand Mixer,                          !- Name
  Hot Water Loop HW Demand Outlet Branch,                  !- Outlet Branch Name
  Hot Water Loop HW Demand Bypass Branch,                  !- Inlet Branch Name
  Floor_1_AHU1 Reheat Coil HW Branch,                      !- Name
  Floor_2_AHU1 Reheat Coil HW Branch,                      !- Name
  Floor_3_AHU1 Reheat Coil HW Branch,                      !- Name
  Floor_4_AHU1 Reheat Coil HW Branch,                      !- Name
  Floor_5_AHU1 Reheat Coil HW Branch,                      !- Name
  Floor_6_AHU1 Reheat Coil HW Branch,                      !- Name
  Floor_1_AHU2 Reheat Coil HW Branch,                      !- Name
  Floor_2_AHU2 Reheat Coil HW Branch,                      !- Name
  Floor_3_AHU2 Reheat Coil HW Branch,                      !- Name
  Floor_4_AHU2 Reheat Coil HW Branch,                      !- Name
  Floor_5_AHU2 Reheat Coil HW Branch,                      !- Name
  Floor_6_AHU2 Reheat Coil HW Branch,                      !- Name
  VAV Sys 1 Heating Coil HW Branch,                        !- Name
  VAV Sys 2 Heating Coil HW Branch;                        !- Name

Branch,
  Hot Water Loop HW Demand Inlet Branch,                   !- Name
  ,                                                        !- Pressure Drop Curve Name
  Pipe:Adiabatic,                                          !- Component Object Type
  Hot Water Loop HW Demand Inlet Pipe,                     !- Component Name
  Hot Water Loop HW Demand Inlet,                          !- Component Inlet Node Name
  Hot Water Loop HW Demand Inlet Pipe Outlet;              !- Component Outlet Node Name

Pipe:Adiabatic,
  Hot Water Loop HW Demand Inlet Pipe,                     !- Name
  Hot Water Loop HW Demand Inlet,                          !- Inlet Node Name
  Hot Water Loop HW Demand Inlet Pipe Outlet;              !- Outlet Node Name

Branch,
  Hot Water Loop HW Demand Bypass Branch,                  !- Name
  ,                                                        !- Pressure Drop Curve Name
  Pipe:Adiabatic,                                          !- Component Object Type
  Hot Water Loop HW Demand Side Bypass Pipe,               !- Component Name
  Hot Water Loop HW Demand Bypass Inlet,                   !- Component Inlet Node Name
  Hot Water Loop HW Demand Bypass Outlet;                  !- Component Outlet Node Name

Pipe:Adiabatic,
  Hot Water Loop HW Demand Side Bypass Pipe,               !- Name
  Hot Water Loop HW Demand Bypass Inlet,                   !- Inlet Node Name
  Hot Water Loop HW Demand Bypass Outlet;                  !- Outlet Node Name

Branch,
  Hot Water Loop HW Demand Outlet Branch,                  !- Name
  ,                                                        !- Pressure Drop Curve Name
  Pipe:Adiabatic,                                          !- Component Object Type
  Hot Water Loop HW Demand Outlet Pipe,                    !- Component Name
  Hot Water Loop HW Demand Outlet Pipe Inlet,              !- Component Inlet Node Name
  Hot Water Loop HW Demand Outlet;                         !- Component Outlet Node Name

Pipe:Adiabatic,
  Hot Water Loop HW Demand Outlet Pipe,                    !- Name
  Hot Water Loop HW Demand Outlet Pipe Inlet,              !- Inlet Node Name
  Hot Water Loop HW Demand Outlet;                         !- Outlet Node Name

Sizing:Plant,
  Chilled Water Loop Chilled Water Loop,                   !- Plant or Condenser Loop Name
  Cooling,                                                 !- Loop Type
  7.22,                                                    !- Design loop exit temperature {C}
  6.67;                                                    !- Design loop delta T {deltaC}

PlantLoop,
  Chilled Water Loop Chilled Water Loop,                   !- Name
  Water,                                                   !- Fluid Type
  ,                                                        !- User Defined Fluid Type
  Chilled Water Loop Chiller Operation,                    !- PlantEquipmentOperationSchemes Name
  Chilled Water Loop ChW Supply Outlet,                    !- Loop Temperature Setpoint Node Name
  98,                                                      !- Maximum Loop Temperature {C}
  1,                                                       !- Minimum Loop Temperature {C}
  autosize,                                                !- Maximum Loop Volumetric Flow Rate {m3/s}
  0,                                                       !- Minimum Loop Volumetric Flow Rate {m3/s}
  autosize,                                                !- volume of the plant loop {m3}
  Chilled Water Loop ChW Supply Inlet,                     !- Plant Side Inlet Node Name
  Chilled Water Loop ChW Supply Outlet,                    !- Plant Side Outlet Node Name
  Chilled Water Loop ChW Supply Side Branches,             !- Plant Side Branch List Name
  Chilled Water Loop ChW Supply Side Connectors,           !- Plant Side Connector List Name
  Chilled Water Loop ChW Demand Inlet,                     !- Demand Side Inlet Node Name
  Chilled Water Loop ChW Demand Outlet,                    !- Demand Side Outlet Node Name
  Chilled Water Loop ChW Demand Side Branches,             !- Demand Side Branch List Name
  Chilled Water Loop ChW Demand Side Connectors,           !- Demand Side Connector List Name
  SequentialLoad,                                          !- Load Distribution Scheme
  Chilled Water Loop Availability List,                    !- AvailabilityManagerAssignmentList
  SingleSetpoint,                                          !- Plant Loop Demand Calculation Scheme
  None;                                                    !- Common Pipe Simulation

PlantEquipmentOperationSchemes,
  Chilled Water Loop Chiller Operation,                    !- Name
  PlantEquipmentOperation:CoolingLoad,                     !- Control Scheme Object Type
  Chilled Water Loop Chiller Operation All Hours,          !- Control Scheme Name
  HVACTemplate-Always 1;                                   !- Control Scheme Schedule Name

PlantEquipmentOperation:CoolingLoad,
  Chilled Water Loop Chiller Operation All Hours,          !- Name
  0,                                                       !- Load Range Lower Limit 1 {W}
  1000000000000000,                                        !- Load Range Upper Limit 1 {W}
  Chilled Water Loop All Chillers;                         !- Priority Control 1 Equipment List Name

PlantEquipmentList,
  Chilled Water Loop All Chillers,                         !- Name
  Chiller:Electric:EIR,                                    !- Equipment Object Type
  Main Chiller;                                            !- Equipment Name

NodeList,
  Chilled Water Loop ChW Supply Setpoint Nodes,            !- Name
  Main Chiller ChW Outlet,                                 !- Node Name
  Chilled Water Loop ChW Supply Outlet;                    !- Node Name

Schedule:Compact,
  HVACTemplate-Always 7.22,                                !- Name
  HVACTemplate Any Number,                                 !- Schedule Type Limits Name
  Through: 12/31,                                          !- Field 1
  For: AllDays,                                            !- Field 2
  Until: 24:00,                                            !- Field 3
  7.22;                                                    !- Field 4

SetpointManager:Scheduled,
  Chilled Water Loop ChW Temp Manager,                     !- Name
  Temperature,                                             !- Control Variable
  HVACTemplate-Always 7.22,                                !- Schedule Name
  Chilled Water Loop ChW Supply Setpoint Nodes;            !- Setpoint Node or NodeList Name

BranchList,
  Chilled Water Loop ChW Supply Side Branches,             !- Name
  Chilled Water Loop ChW Supply Inlet Branch,              !- Name
  Main Chiller ChW Branch,                                 !- Name
  Chilled Water Loop ChW Supply Bypass Branch,             !- Name
  Chilled Water Loop ChW Supply Outlet Branch;             !- Name

ConnectorList,
  Chilled Water Loop ChW Supply Side Connectors,           !- Name
  Connector:Splitter,                                      !- Connector Object Type
  Chilled Water Loop ChW Supply Splitter,                  !- Connector Name
  Connector:Mixer,                                         !- Connector Object Type
  Chilled Water Loop ChW Supply Mixer;                     !- Connector Name

Connector:Splitter,
  Chilled Water Loop ChW Supply Splitter,                  !- Name
  Chilled Water Loop ChW Supply Inlet Branch,              !- Inlet Branch Name
  Chilled Water Loop ChW Supply Bypass Branch,             !- Outlet Branch Name
  Main Chiller ChW Branch;                                 !- Outlet Branch Name

Connector:Mixer,
  Chilled Water Loop ChW Supply Mixer,                     !- Name
  Chilled Water Loop ChW Supply Outlet Branch,             !- Outlet Branch Name
  Chilled Water Loop ChW Supply Bypass Branch,             !- Inlet Branch Name
  Main Chiller ChW Branch;                                 !- Inlet Branch Name

Branch,
  Chilled Water Loop ChW Supply Bypass Branch,             !- Name
  ,                                                        !- Pressure Drop Curve Name
  Pipe:Adiabatic,                                          !- Component Object Type
  Chilled Water Loop ChW Supply Side Bypass Pipe,          !- Component Name
  Chilled Water Loop ChW Supply Bypass Inlet,              !- Component Inlet Node Name
  Chilled Water Loop ChW Supply Bypass Outlet;             !- Component Outlet Node Name

Pipe:Adiabatic,
  Chilled Water Loop ChW Supply Side Bypass Pipe,          !- Name
  Chilled Water Loop ChW Supply Bypass Inlet,              !- Inlet Node Name
  Chilled Water Loop ChW Supply Bypass Outlet;             !- Outlet Node Name

Pump:ConstantSpeed,
  Chilled Water Loop ChW Supply Pump,                      !- Name
  Chilled Water Loop ChW Supply Inlet,                     !- Inlet Node Name
  Chilled Water Loop ChW Pump Outlet,                      !- Outlet Node Name
  autosize,                                                !- Rated Volumetric Flow Rate {m3/s}
  179352,                                                  !- Rated Pump Head {Pa}
  autosize,                                                !- Rated Power Consumption {W}
  0.9,                                                     !- Motor Efficiency
  0,                                                       !- Fraction of Motor Inefficiencies to Fluid Stream
  INTERMITTENT,                                            !- Pump Control Type
  ;                                                        !- Pump Flow Rate Schedule Name

Branch,
  Chilled Water Loop ChW Supply Inlet Branch,              !- Name
  ,                                                        !- Pressure Drop Curve Name
  Pump:ConstantSpeed,                                      !- Component Object Type
  Chilled Water Loop ChW Supply Pump,                      !- Component Name
  Chilled Water Loop ChW Supply Inlet,                     !- Component Inlet Node Name
  Chilled Water Loop ChW Pump Outlet;                      !- Component Outlet Node Name

Branch,
  Chilled Water Loop ChW Supply Outlet Branch,             !- Name
  ,                                                        !- Pressure Drop Curve Name
  Pipe:Adiabatic,                                          !- Component Object Type
  Chilled Water Loop ChW Supply Outlet Pipe,               !- Component Name
  Chilled Water Loop ChW Supply Outlet Pipe Inlet,         !- Component Inlet Node Name
  Chilled Water Loop ChW Supply Outlet;                    !- Component Outlet Node Name

Pipe:Adiabatic,
  Chilled Water Loop ChW Supply Outlet Pipe,               !- Name
  Chilled Water Loop ChW Supply Outlet Pipe Inlet,         !- Inlet Node Name
  Chilled Water Loop ChW Supply Outlet;                    !- Outlet Node Name

BranchList,
  Chilled Water Loop ChW Demand Side Branches,             !- Name
  Chilled Water Loop ChW Demand Inlet Branch,              !- Name
  VAV Sys 1 Cooling Coil ChW Branch,                       !- Name
  VAV Sys 2 Cooling Coil ChW Branch,                       !- Name
  Chilled Water Loop ChW Demand Bypass Branch,             !- Name
  Chilled Water Loop ChW Demand Outlet Branch;             !- Name

ConnectorList,
  Chilled Water Loop ChW Demand Side Connectors,           !- Name
  Connector:Splitter,                                      !- Connector Object Type
  Chilled Water Loop ChW Demand Splitter,                  !- Connector Name
  Connector:Mixer,                                         !- Connector Object Type
  Chilled Water Loop ChW Demand Mixer;                     !- Connector Name

Connector:Splitter,
  Chilled Water Loop ChW Demand Splitter,                  !- Name
  Chilled Water Loop ChW Demand Inlet Branch,              !- Inlet Branch Name
  Chilled Water Loop ChW Demand Bypass Branch,             !- Outlet Branch Name
  VAV Sys 1 Cooling Coil ChW Branch,                       !- Outlet Branch Name
  VAV Sys 2 Cooling Coil ChW Branch;                       !- Outlet Branch Name

Connector:Mixer,
  Chilled Water Loop ChW Demand Mixer,                     !- Name
  Chilled Water Loop ChW Demand Outlet Branch,             !- Outlet Branch Name
  Chilled Water Loop ChW Demand Bypass Branch,             !- Inlet Branch Name
  VAV Sys 1 Cooling Coil ChW Branch,                       !- Inlet Branch Name
  VAV Sys 2 Cooling Coil ChW Branch;                       !- Inlet Branch Name

Branch,
  Chilled Water Loop ChW Demand Inlet Branch,              !- Name
  ,                                                        !- Pressure Drop Curve Name
  Pipe:Adiabatic,                                          !- Component Object Type
  Chilled Water Loop ChW Demand Inlet Pipe,                !- Component Name
  Chilled Water Loop ChW Demand Inlet,                     !- Component Inlet Node Name
  Chilled Water Loop ChW Demand Inlet Pipe Outlet;         !- Component Outlet Node Name

Pipe:Adiabatic,
  Chilled Water Loop ChW Demand Inlet Pipe,                !- Name
  Chilled Water Loop ChW Demand Inlet,                     !- Inlet Node Name
  Chilled Water Loop ChW Demand Inlet Pipe Outlet;         !- Outlet Node Name

Branch,
  Chilled Water Loop ChW Demand Bypass Branch,             !- Name
  ,                                                        !- Pressure Drop Curve Name
  Pipe:Adiabatic,                                          !- Component Object Type
  Chilled Water Loop ChW Demand Side Bypass Pipe,          !- Component Name
  Chilled Water Loop ChW Demand Bypass Inlet,              !- Component Inlet Node Name
  Chilled Water Loop ChW Demand Bypass Outlet;             !- Component Outlet Node Name

Pipe:Adiabatic,
  Chilled Water Loop ChW Demand Side Bypass Pipe,          !- Name
  Chilled Water Loop ChW Demand Bypass Inlet,              !- Inlet Node Name
  Chilled Water Loop ChW Demand Bypass Outlet;             !- Outlet Node Name

Branch,
  Chilled Water Loop ChW Demand Outlet Branch,             !- Name
  ,                                                        !- Pressure Drop Curve Name
  Pipe:Adiabatic,                                          !- Component Object Type
  Chilled Water Loop ChW Demand Outlet Pipe,               !- Component Name
  Chilled Water Loop ChW Demand Outlet Pipe Inlet,         !- Component Inlet Node Name
  Chilled Water Loop ChW Demand Outlet;                    !- Component Outlet Node Name

Pipe:Adiabatic,
  Chilled Water Loop ChW Demand Outlet Pipe,               !- Name
  Chilled Water Loop ChW Demand Outlet Pipe Inlet,         !- Inlet Node Name
  Chilled Water Loop ChW Demand Outlet;                    !- Outlet Node Name

Sizing:Plant,
  Chilled Water Loop Condenser Water Loop,                 !- Plant or Condenser Loop Name
  Condenser,                                               !- Loop Type
  29.4,                                                    !- Design loop exit temperature {C}
  5.6;                                                     !- Design loop delta T {deltaC}

CondenserLoop,
  Chilled Water Loop Condenser Water Loop,                 !- Name
  Water,                                                   !- Fluid Type
  ,                                                        !- User Defined Fluid Type
  Chilled Water Loop Condenser Operation,                  !- Condenser Operation Scheme List Name
  Chilled Water Loop CndW Supply Outlet,                   !- Condenser Loop Temperature Setpoint Node Name or Reference
  80,                                                      !- Maximum Loop Temperature {C}
  5,                                                       !- Minimum Loop Temperature {C}
  autosize,                                                !- Maximum Loop Volumetric Flow Rate {m3/s}
  0,                                                       !- Minimum Loop Volumetric Flow Rate {m3/s}
  autosize,                                                !- volume of the plant loop {m3}
  Chilled Water Loop CndW Supply Inlet,                    !- Condenser Side Inlet Node Name
  Chilled Water Loop CndW Supply Outlet,                   !- Condenser Side Outlet Node Name
  Chilled Water Loop CndW Supply Side Branches,            !- Condenser Side Branch List Name
  Chilled Water Loop CndW Supply Side Connectors,          !- Condenser Side Connector List Name
  Chilled Water Loop CndW Demand Inlet,                    !- Demand Side Inlet Node Name
  Chilled Water Loop CndW Demand Outlet,                   !- Demand Side Outlet Node Name
  Chilled Water Loop CndW Demand Side Branches,            !- Condenser Demand Side Branch List Name
  Chilled Water Loop CndW Demand Side Connectors,          !- Condenser Demand Side Connector List Name
  SequentialLoad;                                          !- Load Distribution Scheme

CondenserEquipmentOperationSchemes,
  Chilled Water Loop Condenser Operation,                  !- Name
  PlantEquipmentOperation:CoolingLoad,                     !- Control Scheme Object Type
  Chilled Water Loop Condenser Operation All Hours,        !- Control Scheme Name
  HVACTemplate-Always 1;                                   !- Control Scheme Schedule Name

PlantEquipmentOperation:CoolingLoad,
  Chilled Water Loop Condenser Operation All Hours,        !- Name
  0,                                                       !- Load Range Lower Limit 1 {W}
  1000000000000000,                                        !- Load Range Upper Limit 1 {W}
  Chilled Water Loop All Condensers;                       !- Priority Control 1 Equipment List Name

CondenserEquipmentList,
  Chilled Water Loop All Condensers,                       !- Name
  CoolingTower:SingleSpeed,                                !- Equipment Object Type
  Main Tower;                                              !- Equipment Name

NodeList,
  Chilled Water Loop CndW Supply Setpoint Nodes,           !- Name
  Main Tower CndW Outlet,                                  !- Node Name
  Chilled Water Loop CndW Supply Outlet;                   !- Node Name

Schedule:Compact,
  HVACTemplate-Always 29.4,                                !- Name
  HVACTemplate Any Number,                                 !- Schedule Type Limits Name
  Through: 12/31,                                          !- Field 1
  For: AllDays,                                            !- Field 2
  Until: 24:00,                                            !- Field 3
  29.4;                                                    !- Field 4

SetpointManager:Scheduled,
  Chilled Water Loop CndW Temp Manager,                    !- Name
  Temperature,                                             !- Control Variable
  HVACTemplate-Always 29.4,                                !- Schedule Name
  Chilled Water Loop CndW Supply Setpoint Nodes;           !- Setpoint Node or NodeList Name

BranchList,
  Chilled Water Loop CndW Supply Side Branches,            !- Name
  Chilled Water Loop CndW Supply Inlet Branch,             !- Name
  Main Tower CndW Branch,                                  !- Name
  Chilled Water Loop CndW Supply Bypass Branch,            !- Name
  Chilled Water Loop CndW Supply Outlet Branch;            !- Name

ConnectorList,
  Chilled Water Loop CndW Supply Side Connectors,          !- Name
  Connector:Splitter,                                      !- Connector Object Type
  Chilled Water Loop CndW Supply Splitter,                 !- Connector Name
  Connector:Mixer,                                         !- Connector Object Type
  Chilled Water Loop CndW Supply Mixer;                    !- Connector Name

Connector:Splitter,
  Chilled Water Loop CndW Supply Splitter,                 !- Name
  Chilled Water Loop CndW Supply Inlet Branch,             !- Inlet Branch Name
  Chilled Water Loop CndW Supply Bypass Branch,            !- Outlet Branch Name
  Main Tower CndW Branch;                                  !- Outlet Branch Name

Connector:Mixer,
  Chilled Water Loop CndW Supply Mixer,                    !- Name
  Chilled Water Loop CndW Supply Outlet Branch,            !- Outlet Branch Name
  Chilled Water Loop CndW Supply Bypass Branch,            !- Inlet Branch Name
  Main Tower CndW Branch;                                  !- Inlet Branch Name
! Pump part load coefficients are linear to represent condenser pumps dedicated to each chiller.

Pump:VariableSpeed,
  Chilled Water Loop CndW Supply Pump,                     !- Name
  Chilled Water Loop CndW Supply Inlet,                    !- Inlet Node Name
  Chilled Water Loop CndW Pump Outlet,                     !- Outlet Node Name
  autosize,                                                !- Rated Volumetric Flow Rate {m3/s}
  179352,                                                  !- Rated Pump Head {Pa}
  autosize,                                                !- Rated Power Consumption {W}
  0.9,                                                     !- Motor Efficiency
  0,                                                       !- Fraction of Motor Inefficiencies to Fluid Stream
  0,                                                       !- Coefficient 1 of the Part Load Performance Curve
  0,                                                       !- Coefficient 2 of the Part Load Performance Curve
  1,                                                       !- Coefficient 3 of the Part Load Performance Curve
  0,                                                       !- Coefficient 4 of the Part Load Performance Curve
  0,                                                       !- Min Flow Rate while operating in variable flow capacity {m3/s}
  INTERMITTENT,                                            !- Pump Control Type
  ;                                                        !- Pump Flow Rate Schedule Name

Branch,
  Chilled Water Loop CndW Supply Inlet Branch,             !- Name
  ,                                                        !- Pressure Drop Curve Name
  Pump:VariableSpeed,                                      !- Component Object Type
  Chilled Water Loop CndW Supply Pump,                     !- Component Name
  Chilled Water Loop CndW Supply Inlet,                    !- Component Inlet Node Name
  Chilled Water Loop CndW Pump Outlet;                     !- Component Outlet Node Name

Branch,
  Chilled Water Loop CndW Supply Outlet Branch,            !- Name
  ,                                                        !- Pressure Drop Curve Name
  Pipe:Adiabatic,                                          !- Component Object Type
  Chilled Water Loop CndW Supply Outlet Pipe,              !- Component Name
  Chilled Water Loop CndW Supply Outlet Pipe Inlet,        !- Component Inlet Node Name
  Chilled Water Loop CndW Supply Outlet;                   !- Component Outlet Node Name

Pipe:Adiabatic,
  Chilled Water Loop CndW Supply Outlet Pipe,              !- Name
  Chilled Water Loop CndW Supply Outlet Pipe Inlet,        !- Inlet Node Name
  Chilled Water Loop CndW Supply Outlet;                   !- Outlet Node Name

Branch,
  Chilled Water Loop CndW Supply Bypass Branch,            !- Name
  ,                                                        !- Pressure Drop Curve Name
  Pipe:Adiabatic,                                          !- Component Object Type
  Chilled Water Loop CndW Supply Side Bypass Pipe,         !- Component Name
  Chilled Water Loop CndW Supply Bypass Inlet,             !- Component Inlet Node Name
  Chilled Water Loop CndW Supply Bypass Outlet;            !- Component Outlet Node Name

Pipe:Adiabatic,
  Chilled Water Loop CndW Supply Side Bypass Pipe,         !- Name
  Chilled Water Loop CndW Supply Bypass Inlet,             !- Inlet Node Name
  Chilled Water Loop CndW Supply Bypass Outlet;            !- Outlet Node Name

BranchList,
  Chilled Water Loop CndW Demand Side Branches,            !- Name
  Chilled Water Loop CndW Demand Inlet Branch,             !- Name
  Main Chiller CndW Branch,                                !- Name
  Chilled Water Loop CndW Demand Bypass Branch,            !- Name
  Chilled Water Loop CndW Demand Outlet Branch;            !- Name

ConnectorList,
  Chilled Water Loop CndW Demand Side Connectors,          !- Name
  Connector:Splitter,                                      !- Connector Object Type
  Chilled Water Loop CndW Demand Splitter,                 !- Connector Name
  Connector:Mixer,                                         !- Connector Object Type
  Chilled Water Loop CndW Demand Mixer;                    !- Connector Name

Connector:Splitter,
  Chilled Water Loop CndW Demand Splitter,                 !- Name
  Chilled Water Loop CndW Demand Inlet Branch,             !- Inlet Branch Name
  Chilled Water Loop CndW Demand Bypass Branch,            !- Outlet Branch Name
  Main Chiller CndW Branch;                                !- Outlet Branch Name

Connector:Mixer,
  Chilled Water Loop CndW Demand Mixer,                    !- Name
  Chilled Water Loop CndW Demand Outlet Branch,            !- Outlet Branch Name
  Chilled Water Loop CndW Demand Bypass Branch,            !- Inlet Branch Name
  Main Chiller CndW Branch;                                !- Inlet Branch Name

Branch,
  Chilled Water Loop CndW Demand Inlet Branch,             !- Name
  ,                                                        !- Pressure Drop Curve Name
  Pipe:Adiabatic,                                          !- Component Object Type
  Chilled Water Loop CndW Demand Inlet Pipe,               !- Component Name
  Chilled Water Loop CndW Demand Inlet,                    !- Component Inlet Node Name
  Chilled Water Loop CndW Demand Inlet Pipe Outlet;        !- Component Outlet Node Name

Pipe:Adiabatic,
  Chilled Water Loop CndW Demand Inlet Pipe,               !- Name
  Chilled Water Loop CndW Demand Inlet,                    !- Inlet Node Name
  Chilled Water Loop CndW Demand Inlet Pipe Outlet;        !- Outlet Node Name

Branch,
  Chilled Water Loop CndW Demand Bypass Branch,            !- Name
  ,                                                        !- Pressure Drop Curve Name
  Pipe:Adiabatic,                                          !- Component Object Type
  Chilled Water Loop CndW Demand Side Bypass Pipe,         !- Component Name
  Chilled Water Loop CndW Demand Bypass Inlet,             !- Component Inlet Node Name
  Chilled Water Loop CndW Demand Bypass Outlet;            !- Component Outlet Node Name

Pipe:Adiabatic,
  Chilled Water Loop CndW Demand Side Bypass Pipe,         !- Name
  Chilled Water Loop CndW Demand Bypass Inlet,             !- Inlet Node Name
  Chilled Water Loop CndW Demand Bypass Outlet;            !- Outlet Node Name

Branch,
  Chilled Water Loop CndW Demand Outlet Branch,            !- Name
  ,                                                        !- Pressure Drop Curve Name
  Pipe:Adiabatic,                                          !- Component Object Type
  Chilled Water Loop CndW Demand Outlet Pipe,              !- Component Name
  Chilled Water Loop CndW Demand Outlet Pipe Inlet,        !- Component Inlet Node Name
  Chilled Water Loop CndW Demand Outlet;                   !- Component Outlet Node Name

Pipe:Adiabatic,
  Chilled Water Loop CndW Demand Outlet Pipe,              !- Name
  Chilled Water Loop CndW Demand Outlet Pipe Inlet,        !- Inlet Node Name
  Chilled Water Loop CndW Demand Outlet;                   !- Outlet Node Name


Schedule:Compact,
  HW AugOct Plant Avail, On/Off,
  Through: 7/31,
  For: AllDays,
  Until: 24:00, 1,
  Through: 8/31,
  For: Weekdays SummerDesignDay,
  Until: 8:00, 0, Until: 18:00, 1, Until: 24:00, 0,
  For: Saturday,
  Until: 9:00, 0, Until: 16:00, 1, Until: 24:00, 0,
  For: AllOtherDays,
  Until: 24:00, 0,
  Through: 9/30,
  For: AllDays,
  Until: 24:00, 1,
  Through: 10/31,
  For: Weekdays SummerDesignDay,
  Until: 9:00, 0, Until: 15:00, 1, Until: 24:00, 0,
  For: Saturday,
  Until: 10:00, 0, Until: 13:00, 1, Until: 24:00, 0,
  For: AllOtherDays,
  Until: 24:00, 0,
  Through: 12/31,
  For: AllDays,
  Until: 24:00, 1;

AvailabilityManager:Scheduled,
  Hot Water Loop AugOct Month Off,
  HW AugOct Plant Avail;

AvailabilityManagerAssignmentList,
  Hot Water Loop Availability List,
  AvailabilityManager:Scheduled,
  Hot Water Loop AugOct Month Off;

AvailabilityManagerAssignmentList,
  Chilled Water Loop Availability List,                    !- Name
  AvailabilityManager:LowTemperatureTurnOff,               !- Availability Manager Object Type
  Chilled Water Loop Availability Low Temp Off;            !- Availability Manager Name

AvailabilityManager:LowTemperatureTurnOff,
  Chilled Water Loop Availability Low Temp Off,            !- Name
  Chilled Water Loop Outside Air Sensor,                   !- Sensor Node Name
  7.22;                                                    !- Temperature

OutdoorAir:Node,
  Chilled Water Loop Outside Air Sensor,                   !- Name
  -1;                                                      !- Height Above Ground

Output:PreprocessorMessage,
  ExpandObjects,                                           !- Preprocessor Name
  Warning,                                                 !- Error Severity
  Warning:  In HVACTemplate:System:VAV "VAV Sys 2" the Heating Coil Design,  !- message line
  Setpoint is greater than the Cooling Coil Design Setpoint. This may cause,  !- message line
  the heating coil and cooling coil to operate simultaneously. Check results,  !- message line
  carefully and adjust controls if needed.;                !- message line
