!- Windows Line endings

VERSION,
    26.1;                     !- Version Identifier

SIMULATIONCONTROL,
    Yes,                      !- Do Zone Sizing Calculation
    Yes,                      !- Do System Sizing Calculation
    No,                       !- Do Plant Sizing Calculation
    Yes,                      !- Run Simulation for Sizing Periods
    Yes,                      !- Run Simulation for Weather File Run Periods
    No,                       !- Do HVAC Sizing Simulation for Sizing Periods
    1;                        !- Maximum Number of HVAC Sizing Simulation Passes

BUILDING,
    Lakeside_ES,             !- Name
    0,                        !- North Axis
    Suburbs,                  !- Terrain
    0.04,                     !- Loads Convergence Tolerance Value
    0.4,                      !- Temperature Convergence Tolerance Value
    FullInteriorAndExterior,    !- Solar Distribution
    50,                       !- Maximum Number of Warmup Days
    6;                        !- Minimum Number of Warmup Days

SURFACECONVECTIONALGORITHM:INSIDE,
    TARP;                     !- Algorithm

SURFACECONVECTIONALGORITHM:OUTSIDE,
    DOE-2;                    !- Algorithm

HEATBALANCEALGORITHM,
    ConductionTransferFunction,    !- Algorithm
    200,                      !- Surface Temperature Upper Limit
    0.1,                      !- Minimum Surface Convection Heat Transfer Coefficient Value
    1000;                     !- Maximum Surface Convection Heat Transfer Coefficient Value

TIMESTEP,
    4;                        !- Number of Timesteps per Hour

SITE:LOCATION,
    Sun_Prairie_WI,           !- Name
    43.16521,                 !- Latitude
    -89.25408,                !- Longitude
    -6,                       !- Time Zone
    261,                      !- Elevation
    No;                       !- Keep Site Location Information
! 
! Site:GroundTemperature:BuildingSurface,
!     2.0,
!     1.5,
!     3.0,
!     7.0,
!     12.0,
!     16.0,
!     18.0,
!     18.5,
!     16.0,
!     11.0,
!     6.0,
!     3.0;


SIZINGPERIOD:DESIGNDAY,
    Madison Winter,           !- Name
    1,                        !- Month
    21,                       !- Day of Month
    WinterDesignDay,          !- Day Type
    -17.8,                    !- Maximum DryBulb Temperature
    0,                        !- Daily DryBulb Temperature Range
    DefaultMultipliers,       !- DryBulb Temperature Range Modifier Type
    ,                         !- DryBulb Temperature Range Modifier Day Schedule Name
    Wetbulb,                  !- Humidity Condition Type
    -17.8,                    !- Wetbulb or DewPoint at Maximum DryBulb
    ,                         !- Humidity Condition Day Schedule Name
    ,                         !- Humidity Ratio at Maximum DryBulb
    ,                         !- Enthalpy at Maximum DryBulb
    ,                         !- Daily WetBulb Temperature Range
    101325,                   !- Barometric Pressure
    3.5,                      !- Wind Speed
    270,                      !- Wind Direction
    No,                       !- Rain Indicator
    No,                       !- Snow Indicator
    No,                       !- Daylight Saving Time Indicator
    ASHRAEClearSky,           !- Solar Model Indicator
    ,                         !- Beam Solar Day Schedule Name
    ,                         !- Diffuse Solar Day Schedule Name
    0,                        !- ASHRAE Clear Sky Optical Depth for Beam Irradiance taub
    0,                        !- ASHRAE Clear Sky Optical Depth for Diffuse Irradiance taud
    0,                        !- Sky Clearness
    ,                         !- Maximum Number Warmup Days
    FullResetAtBeginEnvironment;    !- Begin Environment Reset Mode

SIZINGPERIOD:DESIGNDAY,
    Madison Summer,           !- Name
    7,                        !- Month
    21,                       !- Day of Month
    SummerDesignDay,          !- Day Type
    33,                       !- Maximum DryBulb Temperature
    10,                       !- Daily DryBulb Temperature Range
    DefaultMultipliers,       !- DryBulb Temperature Range Modifier Type
    ,                         !- DryBulb Temperature Range Modifier Day Schedule Name
    Wetbulb,                  !- Humidity Condition Type
    23,                       !- Wetbulb or DewPoint at Maximum DryBulb
    ,                         !- Humidity Condition Day Schedule Name
    ,                         !- Humidity Ratio at Maximum DryBulb
    ,                         !- Enthalpy at Maximum DryBulb
    ,                         !- Daily WetBulb Temperature Range
    101325,                   !- Barometric Pressure
    4,                        !- Wind Speed
    270,                      !- Wind Direction
    No,                       !- Rain Indicator
    No,                       !- Snow Indicator
    No,                       !- Daylight Saving Time Indicator
    ASHRAEClearSky,           !- Solar Model Indicator
    ,                         !- Beam Solar Day Schedule Name
    ,                         !- Diffuse Solar Day Schedule Name
    0,                        !- ASHRAE Clear Sky Optical Depth for Beam Irradiance taub
    0,                        !- ASHRAE Clear Sky Optical Depth for Diffuse Irradiance taud
    1,                        !- Sky Clearness
    ,                         !- Maximum Number Warmup Days
    FullResetAtBeginEnvironment;    !- Begin Environment Reset Mode

RUNPERIOD,
    CalibrationWindow,        !- Name
    8,                        !- Begin Month
    1,                        !- Begin Day of Month
    2025,                     !- Begin Year
    7,                        !- End Month
    2,                        !- End Day of Month
    2026,                     !- End Year
    Thursday,                 !- Day of Week for Start Day
    Yes,                      !- Use Weather File Holidays and Special Days
    Yes,                      !- Use Weather File Daylight Saving Period
    No,                       !- Apply Weekend Holiday Rule
    Yes,                      !- Use Weather File Rain Indicators
    Yes,                      !- Use Weather File Snow Indicators
    No,                       !- Treat Weather as Actual
    Hour24;                   !- First Hour Interpolation Starting Values

SCHEDULETYPELIMITS,
    Any Number,               !- Name
    ,                         !- Lower Limit Value
    ,                         !- Upper Limit Value
    ,                         !- Numeric Type
    Dimensionless;            !- Unit Type

SCHEDULETYPELIMITS,
    Fraction,                 !- Name
    0,                        !- Lower Limit Value
    1,                        !- Upper Limit Value
    CONTINUOUS,               !- Numeric Type
    Dimensionless;            !- Unit Type

SCHEDULETYPELIMITS,
    Temperature,              !- Name
    -60,                      !- Lower Limit Value
    200,                      !- Upper Limit Value
    CONTINUOUS,               !- Numeric Type
    Dimensionless;            !- Unit Type

SCHEDULETYPELIMITS,
    Control Type,             !- Name
    0,                        !- Lower Limit Value
    4,                        !- Upper Limit Value
    DISCRETE,                 !- Numeric Type
    Dimensionless;            !- Unit Type

SCHEDULE:COMPACT,
    SCH_Occ_Class,            !- Name
    Fraction,                 !- Schedule Type Limits Name
    Through: 5/31,

    For: Weekends Holidays,    !- Field 2
    Until: 24:00,             !- Field 3
    0.05,                     !- Field 4
    For: Thursday,            !- Field 5
    Until: 07:00,             !- Field 6
    0.05,                     !- Field 7
    Until: 07:30,             !- Field 8
    0.2,                      !- Field 9
    Until: 08:00,             !- Field 10
    0.9,                      !- Field 11
    Until: 13:30,             !- Field 12
    1.0,                      !- Field 13
    Until: 15:00,             !- Field 14
    0.2,                      !- Field 15
    Until: 18:00,             !- Field 16
    0.08,                     !- Field 17
    Until: 24:00,             !- Field 18
    0.05,                     !- Field 19
    For: Monday Tuesday Wednesday Friday,    !- Field 20
    Until: 07:00,             !- Field 21
    0.05,                     !- Field 22
    Until: 07:30,             !- Field 23
    0.2,                      !- Field 24
    Until: 08:00,             !- Field 25
    0.9,                      !- Field 26
    Until: 14:45,             !- Field 27
    1.0,                      !- Field 28
    Until: 15:30,             !- Field 29
    0.25,                     !- Field 30
    Until: 18:00,             !- Field 31
    0.1,                      !- Field 32
    Until: 24:00,             !- Field 33
    0.05,
    Through: 7/31,
    For: Weekends Holidays Friday,
    Until: 24:00,
    0.02,
    For: Monday Tuesday Wednesday Thursday,
    Until: 07:30,
    0.02,
    Until: 08:00,
    0.10,
    Until: 13:00,
    0.4,
    Until: 24:00,
    0.02,
    For: AllOtherDays,
    Until: 24:00,
    0.0,
    Through: 12/31,
For: Weekends Holidays,    !- Field 2
    Until: 24:00,             !- Field 3
    0.05,                     !- Field 4
    For: Thursday,            !- Field 5
    Until: 07:00,             !- Field 6
    0.05,                     !- Field 7
    Until: 07:30,             !- Field 8
    0.2,                      !- Field 9
    Until: 08:00,             !- Field 10
    0.9,                      !- Field 11
    Until: 13:30,             !- Field 12
    1.0,                      !- Field 13
    Until: 15:00,             !- Field 14
    0.2,                      !- Field 15
    Until: 18:00,             !- Field 16
    0.08,                     !- Field 17
    Until: 24:00,             !- Field 18
    0.05,                     !- Field 19
    For: Monday Tuesday Wednesday Friday,    !- Field 20
    Until: 07:00,             !- Field 21
    0.05,                     !- Field 22
    Until: 07:30,             !- Field 23
    0.2,                      !- Field 24
    Until: 08:00,             !- Field 25
    0.9,                      !- Field 26
    Until: 14:45,             !- Field 27
    1.0,                      !- Field 28
    Until: 15:30,             !- Field 29
    0.25,                     !- Field 30
    Until: 18:00,             !- Field 31
    0.1,                      !- Field 32
    Until: 24:00,             !- Field 33
    0.05;
!- Field 34

SCHEDULE:COMPACT,
    SCH_Occ_Library,          !- Name
    Fraction,                 !- Schedule Type Limits Name
    Through: 5/31,

    For: Weekends Holidays,    !- Field 2
    Until: 24:00,             !- Field 3
    0.02,                     !- Field 4
    For: Thursday,            !- Field 5
    Until: 07:30,             !- Field 6
    0.05,                     !- Field 7
    Until: 13:30,             !- Field 8
    0.55,                     !- Field 9
    Until: 15:00,             !- Field 10
    0.15,                     !- Field 11
    Until: 24:00,             !- Field 12
    0.02,                     !- Field 13
    For: Monday Tuesday Wednesday Friday,    !- Field 14
    Until: 07:30,             !- Field 15
    0.05,                     !- Field 16
    Until: 14:45,             !- Field 17
    0.55,                     !- Field 18
    Until: 15:30,             !- Field 19
    0.15,                     !- Field 20
    Until: 24:00,             !- Field 21
    0.02,
    Through: 7/31,
    For: Weekends Holidays Friday,
    Until: 24:00,
    0.02,
    For: Monday Tuesday Wednesday Thursday,
    Until: 07:30,
    0.02,
    Until: 08:00,
    0.10,
    Until: 13:00,
    0.4,
    Until: 24:00,
    0.02,
    For: AllOtherDays,
    Until: 24:00,
    0.0,
    Through: 12/31,
For: Weekends Holidays,    !- Field 2
    Until: 24:00,             !- Field 3
    0.02,                     !- Field 4
    For: Thursday,            !- Field 5
    Until: 07:30,             !- Field 6
    0.05,                     !- Field 7
    Until: 13:30,             !- Field 8
    0.55,                     !- Field 9
    Until: 15:00,             !- Field 10
    0.15,                     !- Field 11
    Until: 24:00,             !- Field 12
    0.02,                     !- Field 13
    For: Monday Tuesday Wednesday Friday,    !- Field 14
    Until: 07:30,             !- Field 15
    0.05,                     !- Field 16
    Until: 14:45,             !- Field 17
    0.55,                     !- Field 18
    Until: 15:30,             !- Field 19
    0.15,                     !- Field 20
    Until: 24:00,             !- Field 21
    0.02;
!- Field 22

SCHEDULE:COMPACT,
    SCH_Occ_Cafe,             !- Name
    Fraction,                 !- Schedule Type Limits Name
    Through: 5/31,

    For: Weekends Holidays,    !- Field 2
    Until: 24:00,             !- Field 3
    0.02,                     !- Field 4
    For: Thursday,            !- Field 5
    Until: 07:00,             !- Field 6
    0.05,                     !- Field 7
    Until: 10:45,             !- Field 8
    0.08,                     !- Field 9
    Until: 11:00,             !- Field 10
    0.25,                     !- Field 11
    Until: 13:00,             !- Field 12
    0.95,                     !- Field 13
    Until: 13:30,             !- Field 14
    0.2,                      !- Field 15
    Until: 15:00,             !- Field 16
    0.05,                     !- Field 17
    Until: 24:00,             !- Field 18
    0.02,                     !- Field 19
    For: Monday Tuesday Wednesday Friday,    !- Field 20
    Until: 07:00,             !- Field 21
    0.05,                     !- Field 22
    Until: 10:45,             !- Field 23
    0.08,                     !- Field 24
    Until: 11:00,             !- Field 25
    0.25,                     !- Field 26
    Until: 13:00,             !- Field 27
    0.95,                     !- Field 28
    Until: 14:45,             !- Field 29
    0.15,                     !- Field 30
    Until: 15:30,             !- Field 31
    0.05,                     !- Field 32
    Until: 24:00,             !- Field 33
    0.02,
    Through: 7/31,
    For: Weekends Holidays Friday,
    Until: 24:00,
    0.02,
    For: Monday Tuesday Wednesday Thursday,
    Until: 07:30,
    0.02,
    Until: 08:00,
    0.10,
    Until: 13:00,
    0.4,
    Until: 24:00,
    0.02,
    For: AllOtherDays,
    Until: 24:00,
    0.0,
    Through: 12/31,
For: Weekends Holidays,    !- Field 2
    Until: 24:00,             !- Field 3
    0.02,                     !- Field 4
    For: Thursday,            !- Field 5
    Until: 07:00,             !- Field 6
    0.05,                     !- Field 7
    Until: 10:45,             !- Field 8
    0.08,                     !- Field 9
    Until: 11:00,             !- Field 10
    0.25,                     !- Field 11
    Until: 13:00,             !- Field 12
    0.95,                     !- Field 13
    Until: 13:30,             !- Field 14
    0.2,                      !- Field 15
    Until: 15:00,             !- Field 16
    0.05,                     !- Field 17
    Until: 24:00,             !- Field 18
    0.02,                     !- Field 19
    For: Monday Tuesday Wednesday Friday,    !- Field 20
    Until: 07:00,             !- Field 21
    0.05,                     !- Field 22
    Until: 10:45,             !- Field 23
    0.08,                     !- Field 24
    Until: 11:00,             !- Field 25
    0.25,                     !- Field 26
    Until: 13:00,             !- Field 27
    0.95,                     !- Field 28
    Until: 14:45,             !- Field 29
    0.15,                     !- Field 30
    Until: 15:30,             !- Field 31
    0.05,                     !- Field 32
    Until: 24:00,             !- Field 33
    0.02;
!- Field 34

SCHEDULE:COMPACT,
    SCH_Occ_Gym,              !- Name
    Fraction,                 !- Schedule Type Limits Name
    Through: 5/31,

    For: Weekends Holidays,    !- Field 2
    Until: 24:00,             !- Field 3
    0.02,                     !- Field 4
    For: Thursday,            !- Field 5
    Until: 08:00,             !- Field 6
    0.05,                     !- Field 7
    Until: 09:00,             !- Field 8
    0.7,                      !- Field 9
    Until: 10:00,             !- Field 10
    0.15,                     !- Field 11
    Until: 11:00,             !- Field 12
    0.7,                      !- Field 13
    Until: 12:00,             !- Field 14
    0.15,                     !- Field 15
    Until: 13:00,             !- Field 16
    0.5,                      !- Field 17
    Until: 13:30,             !- Field 18
    0.1,                      !- Field 19
    Until: 24:00,             !- Field 20
    0.02,                     !- Field 21
    For: Monday Tuesday Wednesday Friday,    !- Field 22
    Until: 08:00,             !- Field 23
    0.05,                     !- Field 24
    Until: 09:00,             !- Field 25
    0.7,                      !- Field 26
    Until: 10:00,             !- Field 27
    0.15,                     !- Field 28
    Until: 11:00,             !- Field 29
    0.7,                      !- Field 30
    Until: 12:00,             !- Field 31
    0.15,                     !- Field 32
    Until: 13:00,             !- Field 33
    0.7,                      !- Field 34
    Until: 14:00,             !- Field 35
    0.15,                     !- Field 36
    Until: 14:45,             !- Field 37
    0.4,                      !- Field 38
    Until: 15:30,             !- Field 39
    0.08,                     !- Field 40
    Until: 24:00,             !- Field 41
    0.02,
    Through: 7/31,
    For: Weekends Holidays Friday,
    Until: 24:00,
    0.02,
    For: Monday Tuesday Wednesday Thursday,
    Until: 07:30,
    0.02,
    Until: 08:00,
    0.10,
    Until: 13:00,
    0.4,
    Until: 24:00,
    0.02,
    For: AllOtherDays,
    Until: 24:00,
    0.0,
    Through: 12/31,
For: Weekends Holidays,    !- Field 2
    Until: 24:00,             !- Field 3
    0.02,                     !- Field 4
    For: Thursday,            !- Field 5
    Until: 08:00,             !- Field 6
    0.05,                     !- Field 7
    Until: 09:00,             !- Field 8
    0.7,                      !- Field 9
    Until: 10:00,             !- Field 10
    0.15,                     !- Field 11
    Until: 11:00,             !- Field 12
    0.7,                      !- Field 13
    Until: 12:00,             !- Field 14
    0.15,                     !- Field 15
    Until: 13:00,             !- Field 16
    0.5,                      !- Field 17
    Until: 13:30,             !- Field 18
    0.1,                      !- Field 19
    Until: 24:00,             !- Field 20
    0.02,                     !- Field 21
    For: Monday Tuesday Wednesday Friday,    !- Field 22
    Until: 08:00,             !- Field 23
    0.05,                     !- Field 24
    Until: 09:00,             !- Field 25
    0.7,                      !- Field 26
    Until: 10:00,             !- Field 27
    0.15,                     !- Field 28
    Until: 11:00,             !- Field 29
    0.7,                      !- Field 30
    Until: 12:00,             !- Field 31
    0.15,                     !- Field 32
    Until: 13:00,             !- Field 33
    0.7,                      !- Field 34
    Until: 14:00,             !- Field 35
    0.15,                     !- Field 36
    Until: 14:45,             !- Field 37
    0.4,                      !- Field 38
    Until: 15:30,             !- Field 39
    0.08,                     !- Field 40
    Until: 24:00,             !- Field 41
    0.02;
!- Field 42

SCHEDULE:COMPACT,
    SCH_Lights,               !- Name
    Fraction,                 !- Schedule Type Limits Name
    Through: 5/31,

    For: Weekends Holidays,    !- Field 2
    Until: 24:00,             !- Field 3
    0.1,                      !- Field 4
    For: Thursday,            !- Field 5
    Until: 06:45,             !- Field 6
    0.1,                      !- Field 7
    Until: 07:30,             !- Field 8
    0.5,                      !- Field 9
    Until: 13:30,             !- Field 10
    0.9,                      !- Field 11
    Until: 18:00,             !- Field 12
    0.25,                     !- Field 13
    Until: 24:00,             !- Field 14
    0.1,                      !- Field 15
    For: Monday Tuesday Wednesday Friday,    !- Field 16
    Until: 06:45,             !- Field 17
    0.1,                      !- Field 18
    Until: 07:30,             !- Field 19
    0.5,                      !- Field 20
    Until: 15:00,             !- Field 21
    0.9,                      !- Field 22
    Until: 18:00,             !- Field 23
    0.3,                      !- Field 24
    Until: 24:00,             !- Field 25
    0.1,
    Through: 7/31,
    For: Weekends Holidays Friday,
    Until: 24:00,
    0.02,
    For: Monday Tuesday Wednesday Thursday,
    Until: 07:30,
    0.02,
    Until: 08:00,
    0.10,
    Until: 13:00,
    0.4,
    Until: 24:00,
    0.02,
    For: AllOtherDays,
    Until: 24:00,
    0.0,
    Through: 12/31,
For: Weekends Holidays,    !- Field 2
    Until: 24:00,             !- Field 3
    0.1,                      !- Field 4
    For: Thursday,            !- Field 5
    Until: 06:45,             !- Field 6
    0.1,                      !- Field 7
    Until: 07:30,             !- Field 8
    0.5,                      !- Field 9
    Until: 13:30,             !- Field 10
    0.9,                      !- Field 11
    Until: 18:00,             !- Field 12
    0.25,                     !- Field 13
    Until: 24:00,             !- Field 14
    0.1,                      !- Field 15
    For: Monday Tuesday Wednesday Friday,    !- Field 16
    Until: 06:45,             !- Field 17
    0.1,                      !- Field 18
    Until: 07:30,             !- Field 19
    0.5,                      !- Field 20
    Until: 15:00,             !- Field 21
    0.9,                      !- Field 22
    Until: 18:00,             !- Field 23
    0.3,                      !- Field 24
    Until: 24:00,             !- Field 25
    0.1;
!- Field 26

SCHEDULE:COMPACT,
    SCH_Lights_Gym,           !- Name
    Fraction,                 !- Schedule Type Limits Name
    Through: 5/31,

    For: Weekends Holidays,    !- Field 2
    Until: 24:00,             !- Field 3
    0.05,                     !- Field 4
    For: Thursday,            !- Field 5
    Until: 07:30,             !- Field 6
    0.05,                     !- Field 7
    Until: 13:30,             !- Field 8
    0.75,                     !- Field 9
    Until: 15:00,             !- Field 10
    0.15,                     !- Field 11
    Until: 24:00,             !- Field 12
    0.05,                     !- Field 13
    For: Monday Tuesday Wednesday Friday,    !- Field 14
    Until: 07:30,             !- Field 15
    0.05,                     !- Field 16
    Until: 15:00,             !- Field 17
    0.75,                     !- Field 18
    Until: 18:00,             !- Field 19
    0.15,                     !- Field 20
    Until: 24:00,             !- Field 21
    0.05,
    Through: 7/31,
    For: Weekends Holidays Friday,
    Until: 24:00,
    0.02,
    For: Monday Tuesday Wednesday Thursday,
    Until: 07:30,
    0.02,
    Until: 08:00,
    0.10,
    Until: 13:00,
    0.4,
    Until: 24:00,
    0.02,
    For: AllOtherDays,
    Until: 24:00,
    0.0,
    Through: 12/31,
For: Weekends Holidays,    !- Field 2
    Until: 24:00,             !- Field 3
    0.05,                     !- Field 4
    For: Thursday,            !- Field 5
    Until: 07:30,             !- Field 6
    0.05,                     !- Field 7
    Until: 13:30,             !- Field 8
    0.75,                     !- Field 9
    Until: 15:00,             !- Field 10
    0.15,                     !- Field 11
    Until: 24:00,             !- Field 12
    0.05,                     !- Field 13
    For: Monday Tuesday Wednesday Friday,    !- Field 14
    Until: 07:30,             !- Field 15
    0.05,                     !- Field 16
    Until: 15:00,             !- Field 17
    0.75,                     !- Field 18
    Until: 18:00,             !- Field 19
    0.15,                     !- Field 20
    Until: 24:00,             !- Field 21
    0.05;
!- Field 22

SCHEDULE:COMPACT,
    SCH_Equip,                !- Name
    Fraction,                 !- Schedule Type Limits Name
    Through: 5/31,

    For: Weekends Holidays,    !- Field 2
    Until: 24:00,             !- Field 3
    0.15,                     !- Field 4
    For: Thursday,            !- Field 5
    Until: 07:00,             !- Field 6
    0.15,                     !- Field 7
    Until: 13:30,             !- Field 8
    0.7,                      !- Field 9
    Until: 18:00,             !- Field 10
    0.25,                     !- Field 11
    Until: 24:00,             !- Field 12
    0.15,                     !- Field 13
    For: Monday Tuesday Wednesday Friday,    !- Field 14
    Until: 07:00,             !- Field 15
    0.15,                     !- Field 16
    Until: 15:00,             !- Field 17
    0.7,                      !- Field 18
    Until: 18:00,             !- Field 19
    0.3,                      !- Field 20
    Until: 24:00,             !- Field 21
    0.15,
    Through: 7/31,
    For: Weekends Holidays Friday,
    Until: 24:00,
    0.02,
    For: Monday Tuesday Wednesday Thursday,
    Until: 07:30,
    0.02,
    Until: 08:00,
    0.10,
    Until: 13:00,
    0.4,
    Until: 24:00,
    0.02,
    For: AllOtherDays,
    Until: 24:00,
    0.0,
    Through: 12/31,
For: Weekends Holidays,    !- Field 2
    Until: 24:00,             !- Field 3
    0.15,                     !- Field 4
    For: Thursday,            !- Field 5
    Until: 07:00,             !- Field 6
    0.15,                     !- Field 7
    Until: 13:30,             !- Field 8
    0.7,                      !- Field 9
    Until: 18:00,             !- Field 10
    0.25,                     !- Field 11
    Until: 24:00,             !- Field 12
    0.15,                     !- Field 13
    For: Monday Tuesday Wednesday Friday,    !- Field 14
    Until: 07:00,             !- Field 15
    0.15,                     !- Field 16
    Until: 15:00,             !- Field 17
    0.7,                      !- Field 18
    Until: 18:00,             !- Field 19
    0.3,                      !- Field 20
    Until: 24:00,             !- Field 21
    0.15;
!- Field 22

SCHEDULE:COMPACT,
    SCH_Kitchen,              !- Name
    Fraction,                 !- Schedule Type Limits Name
    Through: 5/31,

    For: Weekends Holidays,    !- Field 2
    Until: 24:00,             !- Field 3
    0.05,                     !- Field 4
    For: Thursday,            !- Field 5
    Until: 06:00,             !- Field 6
    0.05,                     !- Field 7
    Until: 13:30,             !- Field 8
    0.85,                     !- Field 9
    Until: 15:00,             !- Field 10
    0.15,                     !- Field 11
    Until: 24:00,             !- Field 12
    0.05,                     !- Field 13
    For: Monday Tuesday Wednesday Friday,    !- Field 14
    Until: 06:00,             !- Field 15
    0.05,                     !- Field 16
    Until: 13:30,             !- Field 17
    0.85,                     !- Field 18
    Until: 15:00,             !- Field 19
    0.2,                      !- Field 20
    Until: 24:00,             !- Field 21
    0.05,
    Through: 7/31,
    For: Weekends Holidays Friday,
    Until: 24:00,
    0.02,
    For: Monday Tuesday Wednesday Thursday,
    Until: 07:30,
    0.02,
    Until: 08:00,
    0.10,
    Until: 13:00,
    0.4,
    Until: 24:00,
    0.02,
    For: AllOtherDays,
    Until: 24:00,
    0.0,
    Through: 12/31,
For: Weekends Holidays,    !- Field 2
    Until: 24:00,             !- Field 3
    0.05,                     !- Field 4
    For: Thursday,            !- Field 5
    Until: 06:00,             !- Field 6
    0.05,                     !- Field 7
    Until: 13:30,             !- Field 8
    0.85,                     !- Field 9
    Until: 15:00,             !- Field 10
    0.15,                     !- Field 11
    Until: 24:00,             !- Field 12
    0.05,                     !- Field 13
    For: Monday Tuesday Wednesday Friday,    !- Field 14
    Until: 06:00,             !- Field 15
    0.05,                     !- Field 16
    Until: 13:30,             !- Field 17
    0.85,                     !- Field 18
    Until: 15:00,             !- Field 19
    0.2,                      !- Field 20
    Until: 24:00,             !- Field 21
    0.05;
!- Field 22

SCHEDULE:COMPACT,
    SCH_Infil,                !- Name
    Fraction,                 !- Schedule Type Limits Name
    Through: 12/31,           !- Field 1
    For: AllDays,             !- Field 2
    Until: 07:00,             !- Field 3
    1.0,                      !- Field 4
    Until: 15:30,             !- Field 5
    0.5,                      !- Field 6
    Until: 24:00,             !- Field 7
    1.0;                      !- Field 8

SCHEDULE:COMPACT,
    SCH_HVAC,                !- Name
    Fraction,              !- Schedule Type Limits Name
    Through: 12/31,                    !- Field 1
    For: Weekends Holidays,                    !- Field 2
    Until: 24:00,                    !- Field 3
    0.0,                    !- Field 4
    For: Thursday,                    !- Field 5
    Until: 05:30,                    !- Field 6
    0.0,                    !- Field 7
    Until: 07:30,                    !- Field 8
    0.25,                    !- Field 9
    Until: 13:30,                    !- Field 10
    1.0,                    !- Field 11
    Until: 18:00,                    !- Field 12
    0.15,                    !- Field 13
    Until: 24:00,                    !- Field 14
    0.0,                    !- Field 15
    For: Monday Tuesday Wednesday Friday,                    !- Field 16
    Until: 05:30,                    !- Field 17
    0.0,                    !- Field 18
    Until: 07:30,                    !- Field 19
    0.25,                    !- Field 20
    Until: 14:45,                    !- Field 21
    1.0,                    !- Field 22
    Until: 18:00,                    !- Field 23
    0.15,                    !- Field 24
    Until: 24:00,                    !- Field 25
    0.0,                    !- Field 26
    For: AllOtherDays,                    !- Field 27
    Until: 24:00,                    !- Field 28
    0.0;                    !- Field 29                      !- Field 18

SCHEDULE:COMPACT,
    SCH_AlwaysOn,             !- Name
    Fraction,                 !- Schedule Type Limits Name
    Through: 12/31,           !- Field 1
    For: AllDays,             !- Field 2
    Until: 24:00,             !- Field 3
    1.0;                      !- Field 4

SCHEDULE:COMPACT,
    SCH_ControlType,          !- Name
    Control Type,             !- Schedule Type Limits Name
    Through: 12/31,           !- Field 1
    For: AllDays,             !- Field 2
    Until: 24:00,             !- Field 3
    4;                        !- Field 4

SCHEDULE:COMPACT,
    SCH_HtgSP,                !- Name
    Temperature,              !- Schedule Type Limits Name
    Through: 12/31,                    !- Field 1
    For: SummerDesignDay,                    !- Field 2
    Until: 24:00,                    !- Field 3
    7.78,                    !- Field 4
    For: WinterDesignDay,                    !- Field 5
    Until: 24:00,                    !- Field 6
    21.11,                    !- Field 7
    For: Weekends Holidays,                    !- Field 8
    Until: 24:00,                    !- Field 9
    7.78,                    !- Field 10
    For: Thursday,                    !- Field 11
    Until: 03:15,                    !- Field 12
    7.78,                    !- Field 13
    Until: 13:30,                    !- Field 14
    21.11,                    !- Field 15
    Until: 24:00,                    !- Field 16
    7.78,                    !- Field 17
    For: AllOtherDays,                    !- Field 18
    Until: 03:15,                    !- Field 19
    7.78,                    !- Field 20
    Until: 15:30,                    !- Field 21
    21.11,                    !- Field 22
    Until: 24:00,                    !- Field 23
    7.78;
                    !- Field 24                    !- Field 24                    !- Field 18

SCHEDULE:COMPACT,
    SCH_ClgSP,                !- Name
    Temperature,              !- Schedule Type Limits Name
    Through: 12/31,           !- Field 1
    For: SummerDesignDay,     !- Field 2
    Until: 24:00,             !- Field 3
    23.33,                    !- Field 4
    For: WinterDesignDay,     !- Field 5
    Until: 24:00,             !- Field 6
    29.44,                    !- Field 7
    For: Weekends Holidays,    !- Field 8
    Until: 24:00,             !- Field 9
    29.44,                    !- Field 10
    For: Thursday,            !- Field 11
    Until: 06:45,             !- Field 12
    29.44,                    !- Field 13
    Until: 14:00,             !- Field 14
    23.33,                    !- Field 15
    Until: 24:00,             !- Field 16
    29.44,                    !- Field 17
    For: AllOtherDays,        !- Field 18
    Until: 06:45,             !- Field 19
    29.44,                    !- Field 20
    Until: 15:30,             !- Field 21
    23.33,                    !- Field 22
    Until: 24:00,             !- Field 23
    29.44;                    !- Field 24                    !- Field 18

SCHEDULE:COMPACT,
    SCH_Activity,             !- Name
    Any Number,               !- Schedule Type Limits Name
    Through: 12/31,           !- Field 1
    For: AllDays,             !- Field 2
    Until: 24:00,             !- Field 3
    120;                      !- Field 4

SCHEDULE:COMPACT,
    SCH_Activity_Gym,         !- Name
    Any Number,               !- Schedule Type Limits Name
    Through: 12/31,           !- Field 1
    For: AllDays,             !- Field 2
    Until: 24:00,             !- Field 3
    250;                      !- Field 4

SCHEDULE:COMPACT,
    SCH_Activity_Cafe,        !- Name
    Any Number,               !- Schedule Type Limits Name
    Through: 12/31,           !- Field 1
    For: AllDays,             !- Field 2
    Until: 24:00,             !- Field 3
    130;                      !- Field 4

MATERIAL,
    Mat_Conc,                 !- Name
    MediumRough,              !- Roughness
    0.1,                      !- Thickness
    1.4,                      !- Conductivity
    2100,                     !- Density
    880,                      !- Specific Heat
    0.9,                      !- Thermal Absorptance
    0.7,                      !- Solar Absorptance
    0.7;                      !- Visible Absorptance

MATERIAL,
    Mat_Insul,                !- Name
    MediumRough,              !- Roughness
    0.1,                      !- Thickness
    0.04,                     !- Conductivity
    30,                       !- Density
    1200,                     !- Specific Heat
    0.9,                      !- Thermal Absorptance
    0.7,                      !- Solar Absorptance
    0.7;                      !- Visible Absorptance

MATERIAL,
    Mat_Gyp,                  !- Name
    MediumSmooth,             !- Roughness
    0.012,                    !- Thickness
    0.16,                     !- Conductivity
    800,                      !- Density
    1090,                     !- Specific Heat
    0.9,                      !- Thermal Absorptance
    0.7,                      !- Solar Absorptance
    0.7;                      !- Visible Absorptance

MATERIAL,
    Mat_RoofIns,              !- Name
    MediumRough,              !- Roughness
    0.15,                     !- Thickness
    0.04,                     !- Conductivity
    30,                       !- Density
    1200,                     !- Specific Heat
    0.9,                      !- Thermal Absorptance
    0.7,                      !- Solar Absorptance
    0.7;                      !- Visible Absorptance

MATERIAL,
    Mat_RoofDeck,             !- Name
    MediumRough,              !- Roughness
    0.02,                     !- Thickness
    0.14,                     !- Conductivity
    530,                      !- Density
    900,                      !- Specific Heat
    0.9,                      !- Thermal Absorptance
    0.7,                      !- Solar Absorptance
    0.7;                      !- Visible Absorptance

WINDOWMATERIAL:SIMPLEGLAZINGSYSTEM,
    SimpleGlazing,            !- Name
    1.98739205,               !- UFactor
    0.34,                     !- Solar Heat Gain Coefficient
    0.52;                     !- Visible Transmittance

CONSTRUCTION,
    ExtWall,                  !- Name
    Mat_Conc,                 !- Outside Layer
    Mat_Insul,                !- Layer 2
    Mat_Gyp;                  !- Layer 3

CONSTRUCTION,
    ExtRoof,                  !- Name
    Mat_RoofDeck,             !- Outside Layer
    Mat_RoofIns,              !- Layer 2
    Mat_Gyp;                  !- Layer 3

CONSTRUCTION,
    ExtFloor,                 !- Name
    Mat_Insul,                !- Outside Layer
    Mat_Conc;                 !- Layer 2

CONSTRUCTION,
    ExtWindow,                !- Name
    SimpleGlazing;            !- Outside Layer

GLOBALGEOMETRYRULES,
    UpperLeftCorner,          !- Starting Vertex Position
    CounterClockWise,         !- Vertex Entry Direction
    Relative,                 !- Coordinate System
    Relative,                 !- Daylighting Reference Point Coordinate System
    Relative;                 !- Rectangular Surface Coordinate System

ZONE,
    1F_Library_IMC,           !- Name
    0,                        !- Direction of Relative North
    0,                        !- X Origin
    0,                        !- Y Origin
    0,                        !- Z Origin
    1,                        !- Type
    1,                        !- Multiplier
    autocalculate,            !- Ceiling Height
    autocalculate,            !- Volume
    autocalculate,            !- Floor Area
    ,                         !- Zone Inside Convection Algorithm
    ,                         !- Zone Outside Convection Algorithm
    Yes;                      !- Part of Total Floor Area

ZONE,
    1F_Cafe_Kitchen,          !- Name
    0,                        !- Direction of Relative North
    0,                        !- X Origin
    0,                        !- Y Origin
    0,                        !- Z Origin
    1,                        !- Type
    1,                        !- Multiplier
    autocalculate,            !- Ceiling Height
    autocalculate,            !- Volume
    autocalculate,            !- Floor Area
    ,                         !- Zone Inside Convection Algorithm
    ,                         !- Zone Outside Convection Algorithm
    Yes;                      !- Part of Total Floor Area

ZONE,
    1F_Gym,                   !- Name
    0,                        !- Direction of Relative North
    0,                        !- X Origin
    0,                        !- Y Origin
    0,                        !- Z Origin
    1,                        !- Type
    1,                        !- Multiplier
    autocalculate,            !- Ceiling Height
    autocalculate,            !- Volume
    autocalculate,            !- Floor Area
    ,                         !- Zone Inside Convection Algorithm
    ,                         !- Zone Outside Convection Algorithm
    Yes;                      !- Part of Total Floor Area

ZONE,
    1F_Area_A,                !- Name
    0,                        !- Direction of Relative North
    0,                        !- X Origin
    0,                        !- Y Origin
    0,                        !- Z Origin
    1,                        !- Type
    1,                        !- Multiplier
    autocalculate,            !- Ceiling Height
    autocalculate,            !- Volume
    autocalculate,            !- Floor Area
    ,                         !- Zone Inside Convection Algorithm
    ,                         !- Zone Outside Convection Algorithm
    Yes;                      !- Part of Total Floor Area

ZONE,
    1F_Area_B,                !- Name
    0,                        !- Direction of Relative North
    0,                        !- X Origin
    0,                        !- Y Origin
    0,                        !- Z Origin
    1,                        !- Type
    1,                        !- Multiplier
    autocalculate,            !- Ceiling Height
    autocalculate,            !- Volume
    autocalculate,            !- Floor Area
    ,                         !- Zone Inside Convection Algorithm
    ,                         !- Zone Outside Convection Algorithm
    Yes;                      !- Part of Total Floor Area

ZONE,
    1F_Area_C,                !- Name
    0,                        !- Direction of Relative North
    0,                        !- X Origin
    0,                        !- Y Origin
    0,                        !- Z Origin
    1,                        !- Type
    1,                        !- Multiplier
    autocalculate,            !- Ceiling Height
    autocalculate,            !- Volume
    autocalculate,            !- Floor Area
    ,                         !- Zone Inside Convection Algorithm
    ,                         !- Zone Outside Convection Algorithm
    Yes;                      !- Part of Total Floor Area

ZONE,
    1F_Area_D,                !- Name
    0,                        !- Direction of Relative North
    0,                        !- X Origin
    0,                        !- Y Origin
    0,                        !- Z Origin
    1,                        !- Type
    1,                        !- Multiplier
    autocalculate,            !- Ceiling Height
    autocalculate,            !- Volume
    autocalculate,            !- Floor Area
    ,                         !- Zone Inside Convection Algorithm
    ,                         !- Zone Outside Convection Algorithm
    Yes;                      !- Part of Total Floor Area

ZONE,
    2F_Area_A,                !- Name
    0,                        !- Direction of Relative North
    0,                        !- X Origin
    0,                        !- Y Origin
    0,                        !- Z Origin
    1,                        !- Type
    1,                        !- Multiplier
    autocalculate,            !- Ceiling Height
    autocalculate,            !- Volume
    autocalculate,            !- Floor Area
    ,                         !- Zone Inside Convection Algorithm
    ,                         !- Zone Outside Convection Algorithm
    Yes;                      !- Part of Total Floor Area

ZONE,
    2F_Area_B,                !- Name
    0,                        !- Direction of Relative North
    0,                        !- X Origin
    0,                        !- Y Origin
    0,                        !- Z Origin
    1,                        !- Type
    1,                        !- Multiplier
    autocalculate,            !- Ceiling Height
    autocalculate,            !- Volume
    autocalculate,            !- Floor Area
    ,                         !- Zone Inside Convection Algorithm
    ,                         !- Zone Outside Convection Algorithm
    Yes;                      !- Part of Total Floor Area

BUILDINGSURFACE:DETAILED,
    1F_Library_IMC_Floor,     !- Name
    Floor,                    !- Surface Type
    ExtFloor,                 !- Construction Name
    1F_Library_IMC,           !- Zone Name
    ,                         !- Space Name
    Ground,                   !- Outside Boundary Condition
    ,                         !- Outside Boundary Condition Object
    NoSun,                    !- Sun Exposure
    NoWind,                   !- Wind Exposure
    autocalculate,            !- View Factor to Ground
    4,                        !- Number of Vertices
    0,                        !- Vertex 1 Xcoordinate
    80,                       !- Vertex 1 Ycoordinate
    0,                        !- Vertex 1 Zcoordinate
    0,                        !- Vertex 2 Xcoordinate
    94.36840670050479,        !- Vertex 2 Ycoordinate
    0,                        !- Vertex 2 Zcoordinate
    25.863132060908633,       !- Vertex 3 Xcoordinate
    94.36840670050479,        !- Vertex 3 Ycoordinate
    0,                        !- Vertex 3 Zcoordinate
    25.863132060908633,       !- Vertex 4 Xcoordinate
    80,                       !- Vertex 4 Ycoordinate
    0;                        !- Vertex 4 Zcoordinate

BUILDINGSURFACE:DETAILED,
    1F_Library_IMC_Roof,      !- Name
    Roof,                     !- Surface Type
    ExtRoof,                  !- Construction Name
    1F_Library_IMC,           !- Zone Name
    ,                         !- Space Name
    Outdoors,                 !- Outside Boundary Condition
    ,                         !- Outside Boundary Condition Object
    SunExposed,               !- Sun Exposure
    WindExposed,              !- Wind Exposure
    autocalculate,            !- View Factor to Ground
    4,                        !- Number of Vertices
    0,                        !- Vertex 1 Xcoordinate
    80,                       !- Vertex 1 Ycoordinate
    3.6576000000000004,       !- Vertex 1 Zcoordinate
    25.863132060908633,       !- Vertex 2 Xcoordinate
    80,                       !- Vertex 2 Ycoordinate
    3.6576000000000004,       !- Vertex 2 Zcoordinate
    25.863132060908633,       !- Vertex 3 Xcoordinate
    94.36840670050479,        !- Vertex 3 Ycoordinate
    3.6576000000000004,       !- Vertex 3 Zcoordinate
    0,                        !- Vertex 4 Xcoordinate
    94.36840670050479,        !- Vertex 4 Ycoordinate
    3.6576000000000004;       !- Vertex 4 Zcoordinate

BUILDINGSURFACE:DETAILED,
    1F_Library_IMC_S,         !- Name
    Wall,                     !- Surface Type
    ExtWall,                  !- Construction Name
    1F_Library_IMC,           !- Zone Name
    ,                         !- Space Name
    Outdoors,                 !- Outside Boundary Condition
    ,                         !- Outside Boundary Condition Object
    SunExposed,               !- Sun Exposure
    WindExposed,              !- Wind Exposure
    autocalculate,            !- View Factor to Ground
    4,                        !- Number of Vertices
    0,                        !- Vertex 1 Xcoordinate
    80,                       !- Vertex 1 Ycoordinate
    0,                        !- Vertex 1 Zcoordinate
    25.863132060908633,       !- Vertex 2 Xcoordinate
    80,                       !- Vertex 2 Ycoordinate
    0,                        !- Vertex 2 Zcoordinate
    25.863132060908633,       !- Vertex 3 Xcoordinate
    80,                       !- Vertex 3 Ycoordinate
    3.6576000000000004,       !- Vertex 3 Zcoordinate
    0,                        !- Vertex 4 Xcoordinate
    80,                       !- Vertex 4 Ycoordinate
    3.6576000000000004;       !- Vertex 4 Zcoordinate

BUILDINGSURFACE:DETAILED,
    1F_Library_IMC_N,         !- Name
    Wall,                     !- Surface Type
    ExtWall,                  !- Construction Name
    1F_Library_IMC,           !- Zone Name
    ,                         !- Space Name
    Outdoors,                 !- Outside Boundary Condition
    ,                         !- Outside Boundary Condition Object
    SunExposed,               !- Sun Exposure
    WindExposed,              !- Wind Exposure
    autocalculate,            !- View Factor to Ground
    4,                        !- Number of Vertices
    25.863132060908633,       !- Vertex 1 Xcoordinate
    94.36840670050479,        !- Vertex 1 Ycoordinate
    0,                        !- Vertex 1 Zcoordinate
    0,                        !- Vertex 2 Xcoordinate
    94.36840670050479,        !- Vertex 2 Ycoordinate
    0,                        !- Vertex 2 Zcoordinate
    0,                        !- Vertex 3 Xcoordinate
    94.36840670050479,        !- Vertex 3 Ycoordinate
    3.6576000000000004,       !- Vertex 3 Zcoordinate
    25.863132060908633,       !- Vertex 4 Xcoordinate
    94.36840670050479,        !- Vertex 4 Ycoordinate
    3.6576000000000004;       !- Vertex 4 Zcoordinate

BUILDINGSURFACE:DETAILED,
    1F_Library_IMC_E,         !- Name
    Wall,                     !- Surface Type
    ExtWall,                  !- Construction Name
    1F_Library_IMC,           !- Zone Name
    ,                         !- Space Name
    Outdoors,                 !- Outside Boundary Condition
    ,                         !- Outside Boundary Condition Object
    SunExposed,               !- Sun Exposure
    WindExposed,              !- Wind Exposure
    autocalculate,            !- View Factor to Ground
    4,                        !- Number of Vertices
    25.863132060908633,       !- Vertex 1 Xcoordinate
    80,                       !- Vertex 1 Ycoordinate
    0,                        !- Vertex 1 Zcoordinate
    25.863132060908633,       !- Vertex 2 Xcoordinate
    94.36840670050479,        !- Vertex 2 Ycoordinate
    0,                        !- Vertex 2 Zcoordinate
    25.863132060908633,       !- Vertex 3 Xcoordinate
    94.36840670050479,        !- Vertex 3 Ycoordinate
    3.6576000000000004,       !- Vertex 3 Zcoordinate
    25.863132060908633,       !- Vertex 4 Xcoordinate
    80,                       !- Vertex 4 Ycoordinate
    3.6576000000000004;       !- Vertex 4 Zcoordinate

BUILDINGSURFACE:DETAILED,
    1F_Library_IMC_W,         !- Name
    Wall,                     !- Surface Type
    ExtWall,                  !- Construction Name
    1F_Library_IMC,           !- Zone Name
    ,                         !- Space Name
    Outdoors,                 !- Outside Boundary Condition
    ,                         !- Outside Boundary Condition Object
    SunExposed,               !- Sun Exposure
    WindExposed,              !- Wind Exposure
    autocalculate,            !- View Factor to Ground
    4,                        !- Number of Vertices
    0,                        !- Vertex 1 Xcoordinate
    94.36840670050479,        !- Vertex 1 Ycoordinate
    0,                        !- Vertex 1 Zcoordinate
    0,                        !- Vertex 2 Xcoordinate
    80,                       !- Vertex 2 Ycoordinate
    0,                        !- Vertex 2 Zcoordinate
    0,                        !- Vertex 3 Xcoordinate
    80,                       !- Vertex 3 Ycoordinate
    3.6576000000000004,       !- Vertex 3 Zcoordinate
    0,                        !- Vertex 4 Xcoordinate
    94.36840670050479,        !- Vertex 4 Ycoordinate
    3.6576000000000004;       !- Vertex 4 Zcoordinate

BUILDINGSURFACE:DETAILED,
    1F_Cafe_Kitchen_Floor,    !- Name
    Floor,                    !- Surface Type
    ExtFloor,                 !- Construction Name
    1F_Cafe_Kitchen,          !- Zone Name
    ,                         !- Space Name
    Ground,                   !- Outside Boundary Condition
    ,                         !- Outside Boundary Condition Object
    NoSun,                    !- Sun Exposure
    NoWind,                   !- Wind Exposure
    autocalculate,            !- View Factor to Ground
    4,                        !- Number of Vertices
    28.863132060908633,       !- Vertex 1 Xcoordinate
    80,                       !- Vertex 1 Ycoordinate
    0,                        !- Vertex 1 Zcoordinate
    28.863132060908633,       !- Vertex 2 Xcoordinate
    98.45655258528345,        !- Vertex 2 Ycoordinate
    0,                        !- Vertex 2 Zcoordinate
    62.08492671441885,        !- Vertex 3 Xcoordinate
    98.45655258528345,        !- Vertex 3 Ycoordinate
    0,                        !- Vertex 3 Zcoordinate
    62.08492671441885,        !- Vertex 4 Xcoordinate
    80,                       !- Vertex 4 Ycoordinate
    0;                        !- Vertex 4 Zcoordinate

BUILDINGSURFACE:DETAILED,
    1F_Cafe_Kitchen_Roof,     !- Name
    Roof,                     !- Surface Type
    ExtRoof,                  !- Construction Name
    1F_Cafe_Kitchen,          !- Zone Name
    ,                         !- Space Name
    Outdoors,                 !- Outside Boundary Condition
    ,                         !- Outside Boundary Condition Object
    SunExposed,               !- Sun Exposure
    WindExposed,              !- Wind Exposure
    autocalculate,            !- View Factor to Ground
    4,                        !- Number of Vertices
    28.863132060908633,       !- Vertex 1 Xcoordinate
    80,                       !- Vertex 1 Ycoordinate
    4.2672,                   !- Vertex 1 Zcoordinate
    62.08492671441885,        !- Vertex 2 Xcoordinate
    80,                       !- Vertex 2 Ycoordinate
    4.2672,                   !- Vertex 2 Zcoordinate
    62.08492671441885,        !- Vertex 3 Xcoordinate
    98.45655258528345,        !- Vertex 3 Ycoordinate
    4.2672,                   !- Vertex 3 Zcoordinate
    28.863132060908633,       !- Vertex 4 Xcoordinate
    98.45655258528345,        !- Vertex 4 Ycoordinate
    4.2672;                   !- Vertex 4 Zcoordinate

BUILDINGSURFACE:DETAILED,
    1F_Cafe_Kitchen_S,        !- Name
    Wall,                     !- Surface Type
    ExtWall,                  !- Construction Name
    1F_Cafe_Kitchen,          !- Zone Name
    ,                         !- Space Name
    Outdoors,                 !- Outside Boundary Condition
    ,                         !- Outside Boundary Condition Object
    SunExposed,               !- Sun Exposure
    WindExposed,              !- Wind Exposure
    autocalculate,            !- View Factor to Ground
    4,                        !- Number of Vertices
    28.863132060908633,       !- Vertex 1 Xcoordinate
    80,                       !- Vertex 1 Ycoordinate
    0,                        !- Vertex 1 Zcoordinate
    62.08492671441885,        !- Vertex 2 Xcoordinate
    80,                       !- Vertex 2 Ycoordinate
    0,                        !- Vertex 2 Zcoordinate
    62.08492671441885,        !- Vertex 3 Xcoordinate
    80,                       !- Vertex 3 Ycoordinate
    4.2672,                   !- Vertex 3 Zcoordinate
    28.863132060908633,       !- Vertex 4 Xcoordinate
    80,                       !- Vertex 4 Ycoordinate
    4.2672;                   !- Vertex 4 Zcoordinate

BUILDINGSURFACE:DETAILED,
    1F_Cafe_Kitchen_N,        !- Name
    Wall,                     !- Surface Type
    ExtWall,                  !- Construction Name
    1F_Cafe_Kitchen,          !- Zone Name
    ,                         !- Space Name
    Outdoors,                 !- Outside Boundary Condition
    ,                         !- Outside Boundary Condition Object
    SunExposed,               !- Sun Exposure
    WindExposed,              !- Wind Exposure
    autocalculate,            !- View Factor to Ground
    4,                        !- Number of Vertices
    62.08492671441885,        !- Vertex 1 Xcoordinate
    98.45655258528345,        !- Vertex 1 Ycoordinate
    0,                        !- Vertex 1 Zcoordinate
    28.863132060908633,       !- Vertex 2 Xcoordinate
    98.45655258528345,        !- Vertex 2 Ycoordinate
    0,                        !- Vertex 2 Zcoordinate
    28.863132060908633,       !- Vertex 3 Xcoordinate
    98.45655258528345,        !- Vertex 3 Ycoordinate
    4.2672,                   !- Vertex 3 Zcoordinate
    62.08492671441885,        !- Vertex 4 Xcoordinate
    98.45655258528345,        !- Vertex 4 Ycoordinate
    4.2672;                   !- Vertex 4 Zcoordinate

BUILDINGSURFACE:DETAILED,
    1F_Cafe_Kitchen_E,        !- Name
    Wall,                     !- Surface Type
    ExtWall,                  !- Construction Name
    1F_Cafe_Kitchen,          !- Zone Name
    ,                         !- Space Name
    Outdoors,                 !- Outside Boundary Condition
    ,                         !- Outside Boundary Condition Object
    SunExposed,               !- Sun Exposure
    WindExposed,              !- Wind Exposure
    autocalculate,            !- View Factor to Ground
    4,                        !- Number of Vertices
    62.08492671441885,        !- Vertex 1 Xcoordinate
    80,                       !- Vertex 1 Ycoordinate
    0,                        !- Vertex 1 Zcoordinate
    62.08492671441885,        !- Vertex 2 Xcoordinate
    98.45655258528345,        !- Vertex 2 Ycoordinate
    0,                        !- Vertex 2 Zcoordinate
    62.08492671441885,        !- Vertex 3 Xcoordinate
    98.45655258528345,        !- Vertex 3 Ycoordinate
    4.2672,                   !- Vertex 3 Zcoordinate
    62.08492671441885,        !- Vertex 4 Xcoordinate
    80,                       !- Vertex 4 Ycoordinate
    4.2672;                   !- Vertex 4 Zcoordinate

BUILDINGSURFACE:DETAILED,
    1F_Cafe_Kitchen_W,        !- Name
    Wall,                     !- Surface Type
    ExtWall,                  !- Construction Name
    1F_Cafe_Kitchen,          !- Zone Name
    ,                         !- Space Name
    Outdoors,                 !- Outside Boundary Condition
    ,                         !- Outside Boundary Condition Object
    SunExposed,               !- Sun Exposure
    WindExposed,              !- Wind Exposure
    autocalculate,            !- View Factor to Ground
    4,                        !- Number of Vertices
    28.863132060908633,       !- Vertex 1 Xcoordinate
    98.45655258528345,        !- Vertex 1 Ycoordinate
    0,                        !- Vertex 1 Zcoordinate
    28.863132060908633,       !- Vertex 2 Xcoordinate
    80,                       !- Vertex 2 Ycoordinate
    0,                        !- Vertex 2 Zcoordinate
    28.863132060908633,       !- Vertex 3 Xcoordinate
    80,                       !- Vertex 3 Ycoordinate
    4.2672,                   !- Vertex 3 Zcoordinate
    28.863132060908633,       !- Vertex 4 Xcoordinate
    98.45655258528345,        !- Vertex 4 Ycoordinate
    4.2672;                   !- Vertex 4 Zcoordinate

BUILDINGSURFACE:DETAILED,
    1F_Gym_Floor,             !- Name
    Floor,                    !- Surface Type
    ExtFloor,                 !- Construction Name
    1F_Gym,                   !- Zone Name
    ,                         !- Space Name
    Ground,                   !- Outside Boundary Condition
    ,                         !- Outside Boundary Condition Object
    NoSun,                    !- Sun Exposure
    NoWind,                   !- Wind Exposure
    autocalculate,            !- View Factor to Ground
    4,                        !- Number of Vertices
    65.08492671441886,        !- Vertex 1 Xcoordinate
    80,                       !- Vertex 1 Ycoordinate
    0,                        !- Vertex 1 Zcoordinate
    65.08492671441886,        !- Vertex 2 Xcoordinate
    102.30907086494511,       !- Vertex 2 Ycoordinate
    0,                        !- Vertex 2 Zcoordinate
    96.31762592534201,        !- Vertex 3 Xcoordinate
    102.30907086494511,       !- Vertex 3 Ycoordinate
    0,                        !- Vertex 3 Zcoordinate
    96.31762592534201,        !- Vertex 4 Xcoordinate
    80,                       !- Vertex 4 Ycoordinate
    0;                        !- Vertex 4 Zcoordinate

BUILDINGSURFACE:DETAILED,
    1F_Gym_Roof,              !- Name
    Roof,                     !- Surface Type
    ExtRoof,                  !- Construction Name
    1F_Gym,                   !- Zone Name
    ,                         !- Space Name
    Outdoors,                 !- Outside Boundary Condition
    ,                         !- Outside Boundary Condition Object
    SunExposed,               !- Sun Exposure
    WindExposed,              !- Wind Exposure
    autocalculate,            !- View Factor to Ground
    4,                        !- Number of Vertices
    65.08492671441886,        !- Vertex 1 Xcoordinate
    80,                       !- Vertex 1 Ycoordinate
    7.315200000000001,        !- Vertex 1 Zcoordinate
    96.31762592534201,        !- Vertex 2 Xcoordinate
    80,                       !- Vertex 2 Ycoordinate
    7.315200000000001,        !- Vertex 2 Zcoordinate
    96.31762592534201,        !- Vertex 3 Xcoordinate
    102.30907086494511,       !- Vertex 3 Ycoordinate
    7.315200000000001,        !- Vertex 3 Zcoordinate
    65.08492671441886,        !- Vertex 4 Xcoordinate
    102.30907086494511,       !- Vertex 4 Ycoordinate
    7.315200000000001;        !- Vertex 4 Zcoordinate

BUILDINGSURFACE:DETAILED,
    1F_Gym_S,                 !- Name
    Wall,                     !- Surface Type
    ExtWall,                  !- Construction Name
    1F_Gym,                   !- Zone Name
    ,                         !- Space Name
    Outdoors,                 !- Outside Boundary Condition
    ,                         !- Outside Boundary Condition Object
    SunExposed,               !- Sun Exposure
    WindExposed,              !- Wind Exposure
    autocalculate,            !- View Factor to Ground
    4,                        !- Number of Vertices
    65.08492671441886,        !- Vertex 1 Xcoordinate
    80,                       !- Vertex 1 Ycoordinate
    0,                        !- Vertex 1 Zcoordinate
    96.31762592534201,        !- Vertex 2 Xcoordinate
    80,                       !- Vertex 2 Ycoordinate
    0,                        !- Vertex 2 Zcoordinate
    96.31762592534201,        !- Vertex 3 Xcoordinate
    80,                       !- Vertex 3 Ycoordinate
    7.315200000000001,        !- Vertex 3 Zcoordinate
    65.08492671441886,        !- Vertex 4 Xcoordinate
    80,                       !- Vertex 4 Ycoordinate
    7.315200000000001;        !- Vertex 4 Zcoordinate

BUILDINGSURFACE:DETAILED,
    1F_Gym_N,                 !- Name
    Wall,                     !- Surface Type
    ExtWall,                  !- Construction Name
    1F_Gym,                   !- Zone Name
    ,                         !- Space Name
    Outdoors,                 !- Outside Boundary Condition
    ,                         !- Outside Boundary Condition Object
    SunExposed,               !- Sun Exposure
    WindExposed,              !- Wind Exposure
    autocalculate,            !- View Factor to Ground
    4,                        !- Number of Vertices
    96.31762592534201,        !- Vertex 1 Xcoordinate
    102.30907086494511,       !- Vertex 1 Ycoordinate
    0,                        !- Vertex 1 Zcoordinate
    65.08492671441886,        !- Vertex 2 Xcoordinate
    102.30907086494511,       !- Vertex 2 Ycoordinate
    0,                        !- Vertex 2 Zcoordinate
    65.08492671441886,        !- Vertex 3 Xcoordinate
    102.30907086494511,       !- Vertex 3 Ycoordinate
    7.315200000000001,        !- Vertex 3 Zcoordinate
    96.31762592534201,        !- Vertex 4 Xcoordinate
    102.30907086494511,       !- Vertex 4 Ycoordinate
    7.315200000000001;        !- Vertex 4 Zcoordinate

BUILDINGSURFACE:DETAILED,
    1F_Gym_E,                 !- Name
    Wall,                     !- Surface Type
    ExtWall,                  !- Construction Name
    1F_Gym,                   !- Zone Name
    ,                         !- Space Name
    Outdoors,                 !- Outside Boundary Condition
    ,                         !- Outside Boundary Condition Object
    SunExposed,               !- Sun Exposure
    WindExposed,              !- Wind Exposure
    autocalculate,            !- View Factor to Ground
    4,                        !- Number of Vertices
    96.31762592534201,        !- Vertex 1 Xcoordinate
    80,                       !- Vertex 1 Ycoordinate
    0,                        !- Vertex 1 Zcoordinate
    96.31762592534201,        !- Vertex 2 Xcoordinate
    102.30907086494511,       !- Vertex 2 Ycoordinate
    0,                        !- Vertex 2 Zcoordinate
    96.31762592534201,        !- Vertex 3 Xcoordinate
    102.30907086494511,       !- Vertex 3 Ycoordinate
    7.315200000000001,        !- Vertex 3 Zcoordinate
    96.31762592534201,        !- Vertex 4 Xcoordinate
    80,                       !- Vertex 4 Ycoordinate
    7.315200000000001;        !- Vertex 4 Zcoordinate

BUILDINGSURFACE:DETAILED,
    1F_Gym_W,                 !- Name
    Wall,                     !- Surface Type
    ExtWall,                  !- Construction Name
    1F_Gym,                   !- Zone Name
    ,                         !- Space Name
    Outdoors,                 !- Outside Boundary Condition
    ,                         !- Outside Boundary Condition Object
    SunExposed,               !- Sun Exposure
    WindExposed,              !- Wind Exposure
    autocalculate,            !- View Factor to Ground
    4,                        !- Number of Vertices
    65.08492671441886,        !- Vertex 1 Xcoordinate
    102.30907086494511,       !- Vertex 1 Ycoordinate
    0,                        !- Vertex 1 Zcoordinate
    65.08492671441886,        !- Vertex 2 Xcoordinate
    80,                       !- Vertex 2 Ycoordinate
    0,                        !- Vertex 2 Zcoordinate
    65.08492671441886,        !- Vertex 3 Xcoordinate
    80,                       !- Vertex 3 Ycoordinate
    7.315200000000001,        !- Vertex 3 Zcoordinate
    65.08492671441886,        !- Vertex 4 Xcoordinate
    102.30907086494511,       !- Vertex 4 Ycoordinate
    7.315200000000001;        !- Vertex 4 Zcoordinate

BUILDINGSURFACE:DETAILED,
    1F_Area_A_Floor,          !- Name
    Floor,                    !- Surface Type
    ExtFloor,                 !- Construction Name
    1F_Area_A,                !- Zone Name
    ,                         !- Space Name
    Ground,                   !- Outside Boundary Condition
    ,                         !- Outside Boundary Condition Object
    NoSun,                    !- Sun Exposure
    NoWind,                   !- Wind Exposure
    autocalculate,            !- View Factor to Ground
    4,                        !- Number of Vertices
    0,                        !- Vertex 1 Xcoordinate
    0,                        !- Vertex 1 Ycoordinate
    0,                        !- Vertex 1 Zcoordinate
    0,                        !- Vertex 2 Xcoordinate
    22.1142997690355,         !- Vertex 2 Ycoordinate
    0,                        !- Vertex 2 Zcoordinate
    48.6514594918781,         !- Vertex 3 Xcoordinate
    22.1142997690355,         !- Vertex 3 Ycoordinate
    0,                        !- Vertex 3 Zcoordinate
    48.6514594918781,         !- Vertex 4 Xcoordinate
    0,                        !- Vertex 4 Ycoordinate
    0;                        !- Vertex 4 Zcoordinate

BUILDINGSURFACE:DETAILED,
    1F_Area_A_Roof,           !- Name
    Roof,                     !- Surface Type
    ExtRoof,                  !- Construction Name
    1F_Area_A,                !- Zone Name
    ,                         !- Space Name
    Outdoors,                 !- Outside Boundary Condition
    ,                         !- Outside Boundary Condition Object
    SunExposed,               !- Sun Exposure
    WindExposed,              !- Wind Exposure
    autocalculate,            !- View Factor to Ground
    4,                        !- Number of Vertices
    0,                        !- Vertex 1 Xcoordinate
    0,                        !- Vertex 1 Ycoordinate
    3.048,                    !- Vertex 1 Zcoordinate
    48.6514594918781,         !- Vertex 2 Xcoordinate
    0,                        !- Vertex 2 Ycoordinate
    3.048,                    !- Vertex 2 Zcoordinate
    48.6514594918781,         !- Vertex 3 Xcoordinate
    22.1142997690355,         !- Vertex 3 Ycoordinate
    3.048,                    !- Vertex 3 Zcoordinate
    0,                        !- Vertex 4 Xcoordinate
    22.1142997690355,         !- Vertex 4 Ycoordinate
    3.048;                    !- Vertex 4 Zcoordinate

BUILDINGSURFACE:DETAILED,
    1F_Area_A_S,              !- Name
    Wall,                     !- Surface Type
    ExtWall,                  !- Construction Name
    1F_Area_A,                !- Zone Name
    ,                         !- Space Name
    Outdoors,                 !- Outside Boundary Condition
    ,                         !- Outside Boundary Condition Object
    SunExposed,               !- Sun Exposure
    WindExposed,              !- Wind Exposure
    autocalculate,            !- View Factor to Ground
    4,                        !- Number of Vertices
    0,                        !- Vertex 1 Xcoordinate
    0,                        !- Vertex 1 Ycoordinate
    0,                        !- Vertex 1 Zcoordinate
    48.6514594918781,         !- Vertex 2 Xcoordinate
    0,                        !- Vertex 2 Ycoordinate
    0,                        !- Vertex 2 Zcoordinate
    48.6514594918781,         !- Vertex 3 Xcoordinate
    0,                        !- Vertex 3 Ycoordinate
    3.048,                    !- Vertex 3 Zcoordinate
    0,                        !- Vertex 4 Xcoordinate
    0,                        !- Vertex 4 Ycoordinate
    3.048;                    !- Vertex 4 Zcoordinate

BUILDINGSURFACE:DETAILED,
    1F_Area_A_N,              !- Name
    Wall,                     !- Surface Type
    ExtWall,                  !- Construction Name
    1F_Area_A,                !- Zone Name
    ,                         !- Space Name
    Outdoors,                 !- Outside Boundary Condition
    ,                         !- Outside Boundary Condition Object
    SunExposed,               !- Sun Exposure
    WindExposed,              !- Wind Exposure
    autocalculate,            !- View Factor to Ground
    4,                        !- Number of Vertices
    48.6514594918781,         !- Vertex 1 Xcoordinate
    22.1142997690355,         !- Vertex 1 Ycoordinate
    0,                        !- Vertex 1 Zcoordinate
    0,                        !- Vertex 2 Xcoordinate
    22.1142997690355,         !- Vertex 2 Ycoordinate
    0,                        !- Vertex 2 Zcoordinate
    0,                        !- Vertex 3 Xcoordinate
    22.1142997690355,         !- Vertex 3 Ycoordinate
    3.048,                    !- Vertex 3 Zcoordinate
    48.6514594918781,         !- Vertex 4 Xcoordinate
    22.1142997690355,         !- Vertex 4 Ycoordinate
    3.048;                    !- Vertex 4 Zcoordinate

BUILDINGSURFACE:DETAILED,
    1F_Area_A_E,              !- Name
    Wall,                     !- Surface Type
    ExtWall,                  !- Construction Name
    1F_Area_A,                !- Zone Name
    ,                         !- Space Name
    Outdoors,                 !- Outside Boundary Condition
    ,                         !- Outside Boundary Condition Object
    SunExposed,               !- Sun Exposure
    WindExposed,              !- Wind Exposure
    autocalculate,            !- View Factor to Ground
    4,                        !- Number of Vertices
    48.6514594918781,         !- Vertex 1 Xcoordinate
    0,                        !- Vertex 1 Ycoordinate
    0,                        !- Vertex 1 Zcoordinate
    48.6514594918781,         !- Vertex 2 Xcoordinate
    22.1142997690355,         !- Vertex 2 Ycoordinate
    0,                        !- Vertex 2 Zcoordinate
    48.6514594918781,         !- Vertex 3 Xcoordinate
    22.1142997690355,         !- Vertex 3 Ycoordinate
    3.048,                    !- Vertex 3 Zcoordinate
    48.6514594918781,         !- Vertex 4 Xcoordinate
    0,                        !- Vertex 4 Ycoordinate
    3.048;                    !- Vertex 4 Zcoordinate

BUILDINGSURFACE:DETAILED,
    1F_Area_A_W,              !- Name
    Wall,                     !- Surface Type
    ExtWall,                  !- Construction Name
    1F_Area_A,                !- Zone Name
    ,                         !- Space Name
    Outdoors,                 !- Outside Boundary Condition
    ,                         !- Outside Boundary Condition Object
    SunExposed,               !- Sun Exposure
    WindExposed,              !- Wind Exposure
    autocalculate,            !- View Factor to Ground
    4,                        !- Number of Vertices
    0,                        !- Vertex 1 Xcoordinate
    22.1142997690355,         !- Vertex 1 Ycoordinate
    0,                        !- Vertex 1 Zcoordinate
    0,                        !- Vertex 2 Xcoordinate
    0,                        !- Vertex 2 Ycoordinate
    0,                        !- Vertex 2 Zcoordinate
    0,                        !- Vertex 3 Xcoordinate
    0,                        !- Vertex 3 Ycoordinate
    3.048,                    !- Vertex 3 Zcoordinate
    0,                        !- Vertex 4 Xcoordinate
    22.1142997690355,         !- Vertex 4 Ycoordinate
    3.048;                    !- Vertex 4 Zcoordinate

BUILDINGSURFACE:DETAILED,
    1F_Area_B_Floor,          !- Name
    Floor,                    !- Surface Type
    ExtFloor,                 !- Construction Name
    1F_Area_B,                !- Zone Name
    ,                         !- Space Name
    Ground,                   !- Outside Boundary Condition
    ,                         !- Outside Boundary Condition Object
    NoSun,                    !- Sun Exposure
    NoWind,                   !- Wind Exposure
    autocalculate,            !- View Factor to Ground
    4,                        !- Number of Vertices
    50.6514594918781,         !- Vertex 1 Xcoordinate
    0,                        !- Vertex 1 Ycoordinate
    0,                        !- Vertex 1 Zcoordinate
    50.6514594918781,         !- Vertex 2 Xcoordinate
    18.056250151028287,       !- Vertex 2 Ycoordinate
    0,                        !- Vertex 2 Zcoordinate
    90.37520982414034,        !- Vertex 3 Xcoordinate
    18.056250151028287,       !- Vertex 3 Ycoordinate
    0,                        !- Vertex 3 Zcoordinate
    90.37520982414034,        !- Vertex 4 Xcoordinate
    0,                        !- Vertex 4 Ycoordinate
    0;                        !- Vertex 4 Zcoordinate

BUILDINGSURFACE:DETAILED,
    1F_Area_B_Roof,           !- Name
    Roof,                     !- Surface Type
    ExtRoof,                  !- Construction Name
    1F_Area_B,                !- Zone Name
    ,                         !- Space Name
    Outdoors,                 !- Outside Boundary Condition
    ,                         !- Outside Boundary Condition Object
    SunExposed,               !- Sun Exposure
    WindExposed,              !- Wind Exposure
    autocalculate,            !- View Factor to Ground
    4,                        !- Number of Vertices
    50.6514594918781,         !- Vertex 1 Xcoordinate
    0,                        !- Vertex 1 Ycoordinate
    3.048,                    !- Vertex 1 Zcoordinate
    90.37520982414034,        !- Vertex 2 Xcoordinate
    0,                        !- Vertex 2 Ycoordinate
    3.048,                    !- Vertex 2 Zcoordinate
    90.37520982414034,        !- Vertex 3 Xcoordinate
    18.056250151028287,       !- Vertex 3 Ycoordinate
    3.048,                    !- Vertex 3 Zcoordinate
    50.6514594918781,         !- Vertex 4 Xcoordinate
    18.056250151028287,       !- Vertex 4 Ycoordinate
    3.048;                    !- Vertex 4 Zcoordinate

BUILDINGSURFACE:DETAILED,
    1F_Area_B_S,              !- Name
    Wall,                     !- Surface Type
    ExtWall,                  !- Construction Name
    1F_Area_B,                !- Zone Name
    ,                         !- Space Name
    Outdoors,                 !- Outside Boundary Condition
    ,                         !- Outside Boundary Condition Object
    SunExposed,               !- Sun Exposure
    WindExposed,              !- Wind Exposure
    autocalculate,            !- View Factor to Ground
    4,                        !- Number of Vertices
    50.6514594918781,         !- Vertex 1 Xcoordinate
    0,                        !- Vertex 1 Ycoordinate
    0,                        !- Vertex 1 Zcoordinate
    90.37520982414034,        !- Vertex 2 Xcoordinate
    0,                        !- Vertex 2 Ycoordinate
    0,                        !- Vertex 2 Zcoordinate
    90.37520982414034,        !- Vertex 3 Xcoordinate
    0,                        !- Vertex 3 Ycoordinate
    3.048,                    !- Vertex 3 Zcoordinate
    50.6514594918781,         !- Vertex 4 Xcoordinate
    0,                        !- Vertex 4 Ycoordinate
    3.048;                    !- Vertex 4 Zcoordinate

BUILDINGSURFACE:DETAILED,
    1F_Area_B_N,              !- Name
    Wall,                     !- Surface Type
    ExtWall,                  !- Construction Name
    1F_Area_B,                !- Zone Name
    ,                         !- Space Name
    Outdoors,                 !- Outside Boundary Condition
    ,                         !- Outside Boundary Condition Object
    SunExposed,               !- Sun Exposure
    WindExposed,              !- Wind Exposure
    autocalculate,            !- View Factor to Ground
    4,                        !- Number of Vertices
    90.37520982414034,        !- Vertex 1 Xcoordinate
    18.056250151028287,       !- Vertex 1 Ycoordinate
    0,                        !- Vertex 1 Zcoordinate
    50.6514594918781,         !- Vertex 2 Xcoordinate
    18.056250151028287,       !- Vertex 2 Ycoordinate
    0,                        !- Vertex 2 Zcoordinate
    50.6514594918781,         !- Vertex 3 Xcoordinate
    18.056250151028287,       !- Vertex 3 Ycoordinate
    3.048,                    !- Vertex 3 Zcoordinate
    90.37520982414034,        !- Vertex 4 Xcoordinate
    18.056250151028287,       !- Vertex 4 Ycoordinate
    3.048;                    !- Vertex 4 Zcoordinate

BUILDINGSURFACE:DETAILED,
    1F_Area_B_E,              !- Name
    Wall,                     !- Surface Type
    ExtWall,                  !- Construction Name
    1F_Area_B,                !- Zone Name
    ,                         !- Space Name
    Outdoors,                 !- Outside Boundary Condition
    ,                         !- Outside Boundary Condition Object
    SunExposed,               !- Sun Exposure
    WindExposed,              !- Wind Exposure
    autocalculate,            !- View Factor to Ground
    4,                        !- Number of Vertices
    90.37520982414034,        !- Vertex 1 Xcoordinate
    0,                        !- Vertex 1 Ycoordinate
    0,                        !- Vertex 1 Zcoordinate
    90.37520982414034,        !- Vertex 2 Xcoordinate
    18.056250151028287,       !- Vertex 2 Ycoordinate
    0,                        !- Vertex 2 Zcoordinate
    90.37520982414034,        !- Vertex 3 Xcoordinate
    18.056250151028287,       !- Vertex 3 Ycoordinate
    3.048,                    !- Vertex 3 Zcoordinate
    90.37520982414034,        !- Vertex 4 Xcoordinate
    0,                        !- Vertex 4 Ycoordinate
    3.048;                    !- Vertex 4 Zcoordinate

BUILDINGSURFACE:DETAILED,
    1F_Area_B_W,              !- Name
    Wall,                     !- Surface Type
    ExtWall,                  !- Construction Name
    1F_Area_B,                !- Zone Name
    ,                         !- Space Name
    Outdoors,                 !- Outside Boundary Condition
    ,                         !- Outside Boundary Condition Object
    SunExposed,               !- Sun Exposure
    WindExposed,              !- Wind Exposure
    autocalculate,            !- View Factor to Ground
    4,                        !- Number of Vertices
    50.6514594918781,         !- Vertex 1 Xcoordinate
    18.056250151028287,       !- Vertex 1 Ycoordinate
    0,                        !- Vertex 1 Zcoordinate
    50.6514594918781,         !- Vertex 2 Xcoordinate
    0,                        !- Vertex 2 Ycoordinate
    0,                        !- Vertex 2 Zcoordinate
    50.6514594918781,         !- Vertex 3 Xcoordinate
    0,                        !- Vertex 3 Ycoordinate
    3.048,                    !- Vertex 3 Zcoordinate
    50.6514594918781,         !- Vertex 4 Xcoordinate
    18.056250151028287,       !- Vertex 4 Ycoordinate
    3.048;                    !- Vertex 4 Zcoordinate

BUILDINGSURFACE:DETAILED,
    1F_Area_C_Floor,          !- Name
    Floor,                    !- Surface Type
    ExtFloor,                 !- Construction Name
    1F_Area_C,                !- Zone Name
    ,                         !- Space Name
    Ground,                   !- Outside Boundary Condition
    ,                         !- Outside Boundary Condition Object
    NoSun,                    !- Sun Exposure
    NoWind,                   !- Wind Exposure
    autocalculate,            !- View Factor to Ground
    4,                        !- Number of Vertices
    92.37520982414034,        !- Vertex 1 Xcoordinate
    0,                        !- Vertex 1 Ycoordinate
    0,                        !- Vertex 1 Zcoordinate
    92.37520982414034,        !- Vertex 2 Xcoordinate
    18.937554923172105,       !- Vertex 2 Ycoordinate
    0,                        !- Vertex 2 Zcoordinate
    134.03783065511897,       !- Vertex 3 Xcoordinate
    18.937554923172105,       !- Vertex 3 Ycoordinate
    0,                        !- Vertex 3 Zcoordinate
    134.03783065511897,       !- Vertex 4 Xcoordinate
    0,                        !- Vertex 4 Ycoordinate
    0;                        !- Vertex 4 Zcoordinate

BUILDINGSURFACE:DETAILED,
    1F_Area_C_Roof,           !- Name
    Roof,                     !- Surface Type
    ExtRoof,                  !- Construction Name
    1F_Area_C,                !- Zone Name
    ,                         !- Space Name
    Outdoors,                 !- Outside Boundary Condition
    ,                         !- Outside Boundary Condition Object
    SunExposed,               !- Sun Exposure
    WindExposed,              !- Wind Exposure
    autocalculate,            !- View Factor to Ground
    4,                        !- Number of Vertices
    92.37520982414034,        !- Vertex 1 Xcoordinate
    0,                        !- Vertex 1 Ycoordinate
    3.048,                    !- Vertex 1 Zcoordinate
    134.03783065511897,       !- Vertex 2 Xcoordinate
    0,                        !- Vertex 2 Ycoordinate
    3.048,                    !- Vertex 2 Zcoordinate
    134.03783065511897,       !- Vertex 3 Xcoordinate
    18.937554923172105,       !- Vertex 3 Ycoordinate
    3.048,                    !- Vertex 3 Zcoordinate
    92.37520982414034,        !- Vertex 4 Xcoordinate
    18.937554923172105,       !- Vertex 4 Ycoordinate
    3.048;                    !- Vertex 4 Zcoordinate

BUILDINGSURFACE:DETAILED,
    1F_Area_C_S,              !- Name
    Wall,                     !- Surface Type
    ExtWall,                  !- Construction Name
    1F_Area_C,                !- Zone Name
    ,                         !- Space Name
    Outdoors,                 !- Outside Boundary Condition
    ,                         !- Outside Boundary Condition Object
    SunExposed,               !- Sun Exposure
    WindExposed,              !- Wind Exposure
    autocalculate,            !- View Factor to Ground
    4,                        !- Number of Vertices
    92.37520982414034,        !- Vertex 1 Xcoordinate
    0,                        !- Vertex 1 Ycoordinate
    0,                        !- Vertex 1 Zcoordinate
    134.03783065511897,       !- Vertex 2 Xcoordinate
    0,                        !- Vertex 2 Ycoordinate
    0,                        !- Vertex 2 Zcoordinate
    134.03783065511897,       !- Vertex 3 Xcoordinate
    0,                        !- Vertex 3 Ycoordinate
    3.048,                    !- Vertex 3 Zcoordinate
    92.37520982414034,        !- Vertex 4 Xcoordinate
    0,                        !- Vertex 4 Ycoordinate
    3.048;                    !- Vertex 4 Zcoordinate

BUILDINGSURFACE:DETAILED,
    1F_Area_C_N,              !- Name
    Wall,                     !- Surface Type
    ExtWall,                  !- Construction Name
    1F_Area_C,                !- Zone Name
    ,                         !- Space Name
    Outdoors,                 !- Outside Boundary Condition
    ,                         !- Outside Boundary Condition Object
    SunExposed,               !- Sun Exposure
    WindExposed,              !- Wind Exposure
    autocalculate,            !- View Factor to Ground
    4,                        !- Number of Vertices
    134.03783065511897,       !- Vertex 1 Xcoordinate
    18.937554923172105,       !- Vertex 1 Ycoordinate
    0,                        !- Vertex 1 Zcoordinate
    92.37520982414034,        !- Vertex 2 Xcoordinate
    18.937554923172105,       !- Vertex 2 Ycoordinate
    0,                        !- Vertex 2 Zcoordinate
    92.37520982414034,        !- Vertex 3 Xcoordinate
    18.937554923172105,       !- Vertex 3 Ycoordinate
    3.048,                    !- Vertex 3 Zcoordinate
    134.03783065511897,       !- Vertex 4 Xcoordinate
    18.937554923172105,       !- Vertex 4 Ycoordinate
    3.048;                    !- Vertex 4 Zcoordinate

BUILDINGSURFACE:DETAILED,
    1F_Area_C_E,              !- Name
    Wall,                     !- Surface Type
    ExtWall,                  !- Construction Name
    1F_Area_C,                !- Zone Name
    ,                         !- Space Name
    Outdoors,                 !- Outside Boundary Condition
    ,                         !- Outside Boundary Condition Object
    SunExposed,               !- Sun Exposure
    WindExposed,              !- Wind Exposure
    autocalculate,            !- View Factor to Ground
    4,                        !- Number of Vertices
    134.03783065511897,       !- Vertex 1 Xcoordinate
    0,                        !- Vertex 1 Ycoordinate
    0,                        !- Vertex 1 Zcoordinate
    134.03783065511897,       !- Vertex 2 Xcoordinate
    18.937554923172105,       !- Vertex 2 Ycoordinate
    0,                        !- Vertex 2 Zcoordinate
    134.03783065511897,       !- Vertex 3 Xcoordinate
    18.937554923172105,       !- Vertex 3 Ycoordinate
    3.048,                    !- Vertex 3 Zcoordinate
    134.03783065511897,       !- Vertex 4 Xcoordinate
    0,                        !- Vertex 4 Ycoordinate
    3.048;                    !- Vertex 4 Zcoordinate

BUILDINGSURFACE:DETAILED,
    1F_Area_C_W,              !- Name
    Wall,                     !- Surface Type
    ExtWall,                  !- Construction Name
    1F_Area_C,                !- Zone Name
    ,                         !- Space Name
    Outdoors,                 !- Outside Boundary Condition
    ,                         !- Outside Boundary Condition Object
    SunExposed,               !- Sun Exposure
    WindExposed,              !- Wind Exposure
    autocalculate,            !- View Factor to Ground
    4,                        !- Number of Vertices
    92.37520982414034,        !- Vertex 1 Xcoordinate
    18.937554923172105,       !- Vertex 1 Ycoordinate
    0,                        !- Vertex 1 Zcoordinate
    92.37520982414034,        !- Vertex 2 Xcoordinate
    0,                        !- Vertex 2 Ycoordinate
    0,                        !- Vertex 2 Zcoordinate
    92.37520982414034,        !- Vertex 3 Xcoordinate
    0,                        !- Vertex 3 Ycoordinate
    3.048,                    !- Vertex 3 Zcoordinate
    92.37520982414034,        !- Vertex 4 Xcoordinate
    18.937554923172105,       !- Vertex 4 Ycoordinate
    3.048;                    !- Vertex 4 Zcoordinate

BUILDINGSURFACE:DETAILED,
    1F_Area_D_Floor,          !- Name
    Floor,                    !- Surface Type
    ExtFloor,                 !- Construction Name
    1F_Area_D,                !- Zone Name
    ,                         !- Space Name
    Ground,                   !- Outside Boundary Condition
    ,                         !- Outside Boundary Condition Object
    NoSun,                    !- Sun Exposure
    NoWind,                   !- Wind Exposure
    autocalculate,            !- View Factor to Ground
    4,                        !- Number of Vertices
    136.03783065511897,       !- Vertex 1 Xcoordinate
    0,                        !- Vertex 1 Ycoordinate
    0,                        !- Vertex 1 Zcoordinate
    136.03783065511897,       !- Vertex 2 Xcoordinate
    18.056250151028287,       !- Vertex 2 Ycoordinate
    0,                        !- Vertex 2 Zcoordinate
    175.7615809873812,        !- Vertex 3 Xcoordinate
    18.056250151028287,       !- Vertex 3 Ycoordinate
    0,                        !- Vertex 3 Zcoordinate
    175.7615809873812,        !- Vertex 4 Xcoordinate
    0,                        !- Vertex 4 Ycoordinate
    0;                        !- Vertex 4 Zcoordinate

BUILDINGSURFACE:DETAILED,
    1F_Area_D_Roof,           !- Name
    Roof,                     !- Surface Type
    ExtRoof,                  !- Construction Name
    1F_Area_D,                !- Zone Name
    ,                         !- Space Name
    Outdoors,                 !- Outside Boundary Condition
    ,                         !- Outside Boundary Condition Object
    SunExposed,               !- Sun Exposure
    WindExposed,              !- Wind Exposure
    autocalculate,            !- View Factor to Ground
    4,                        !- Number of Vertices
    136.03783065511897,       !- Vertex 1 Xcoordinate
    0,                        !- Vertex 1 Ycoordinate
    3.048,                    !- Vertex 1 Zcoordinate
    175.7615809873812,        !- Vertex 2 Xcoordinate
    0,                        !- Vertex 2 Ycoordinate
    3.048,                    !- Vertex 2 Zcoordinate
    175.7615809873812,        !- Vertex 3 Xcoordinate
    18.056250151028287,       !- Vertex 3 Ycoordinate
    3.048,                    !- Vertex 3 Zcoordinate
    136.03783065511897,       !- Vertex 4 Xcoordinate
    18.056250151028287,       !- Vertex 4 Ycoordinate
    3.048;                    !- Vertex 4 Zcoordinate

BUILDINGSURFACE:DETAILED,
    1F_Area_D_S,              !- Name
    Wall,                     !- Surface Type
    ExtWall,                  !- Construction Name
    1F_Area_D,                !- Zone Name
    ,                         !- Space Name
    Outdoors,                 !- Outside Boundary Condition
    ,                         !- Outside Boundary Condition Object
    SunExposed,               !- Sun Exposure
    WindExposed,              !- Wind Exposure
    autocalculate,            !- View Factor to Ground
    4,                        !- Number of Vertices
    136.03783065511897,       !- Vertex 1 Xcoordinate
    0,                        !- Vertex 1 Ycoordinate
    0,                        !- Vertex 1 Zcoordinate
    175.7615809873812,        !- Vertex 2 Xcoordinate
    0,                        !- Vertex 2 Ycoordinate
    0,                        !- Vertex 2 Zcoordinate
    175.7615809873812,        !- Vertex 3 Xcoordinate
    0,                        !- Vertex 3 Ycoordinate
    3.048,                    !- Vertex 3 Zcoordinate
    136.03783065511897,       !- Vertex 4 Xcoordinate
    0,                        !- Vertex 4 Ycoordinate
    3.048;                    !- Vertex 4 Zcoordinate

BUILDINGSURFACE:DETAILED,
    1F_Area_D_N,              !- Name
    Wall,                     !- Surface Type
    ExtWall,                  !- Construction Name
    1F_Area_D,                !- Zone Name
    ,                         !- Space Name
    Outdoors,                 !- Outside Boundary Condition
    ,                         !- Outside Boundary Condition Object
    SunExposed,               !- Sun Exposure
    WindExposed,              !- Wind Exposure
    autocalculate,            !- View Factor to Ground
    4,                        !- Number of Vertices
    175.7615809873812,        !- Vertex 1 Xcoordinate
    18.056250151028287,       !- Vertex 1 Ycoordinate
    0,                        !- Vertex 1 Zcoordinate
    136.03783065511897,       !- Vertex 2 Xcoordinate
    18.056250151028287,       !- Vertex 2 Ycoordinate
    0,                        !- Vertex 2 Zcoordinate
    136.03783065511897,       !- Vertex 3 Xcoordinate
    18.056250151028287,       !- Vertex 3 Ycoordinate
    3.048,                    !- Vertex 3 Zcoordinate
    175.7615809873812,        !- Vertex 4 Xcoordinate
    18.056250151028287,       !- Vertex 4 Ycoordinate
    3.048;                    !- Vertex 4 Zcoordinate

BUILDINGSURFACE:DETAILED,
    1F_Area_D_E,              !- Name
    Wall,                     !- Surface Type
    ExtWall,                  !- Construction Name
    1F_Area_D,                !- Zone Name
    ,                         !- Space Name
    Outdoors,                 !- Outside Boundary Condition
    ,                         !- Outside Boundary Condition Object
    SunExposed,               !- Sun Exposure
    WindExposed,              !- Wind Exposure
    autocalculate,            !- View Factor to Ground
    4,                        !- Number of Vertices
    175.7615809873812,        !- Vertex 1 Xcoordinate
    0,                        !- Vertex 1 Ycoordinate
    0,                        !- Vertex 1 Zcoordinate
    175.7615809873812,        !- Vertex 2 Xcoordinate
    18.056250151028287,       !- Vertex 2 Ycoordinate
    0,                        !- Vertex 2 Zcoordinate
    175.7615809873812,        !- Vertex 3 Xcoordinate
    18.056250151028287,       !- Vertex 3 Ycoordinate
    3.048,                    !- Vertex 3 Zcoordinate
    175.7615809873812,        !- Vertex 4 Xcoordinate
    0,                        !- Vertex 4 Ycoordinate
    3.048;                    !- Vertex 4 Zcoordinate

BUILDINGSURFACE:DETAILED,
    1F_Area_D_W,              !- Name
    Wall,                     !- Surface Type
    ExtWall,                  !- Construction Name
    1F_Area_D,                !- Zone Name
    ,                         !- Space Name
    Outdoors,                 !- Outside Boundary Condition
    ,                         !- Outside Boundary Condition Object
    SunExposed,               !- Sun Exposure
    WindExposed,              !- Wind Exposure
    autocalculate,            !- View Factor to Ground
    4,                        !- Number of Vertices
    136.03783065511897,       !- Vertex 1 Xcoordinate
    18.056250151028287,       !- Vertex 1 Ycoordinate
    0,                        !- Vertex 1 Zcoordinate
    136.03783065511897,       !- Vertex 2 Xcoordinate
    0,                        !- Vertex 2 Ycoordinate
    0,                        !- Vertex 2 Zcoordinate
    136.03783065511897,       !- Vertex 3 Xcoordinate
    0,                        !- Vertex 3 Ycoordinate
    3.048,                    !- Vertex 3 Zcoordinate
    136.03783065511897,       !- Vertex 4 Xcoordinate
    18.056250151028287,       !- Vertex 4 Ycoordinate
    3.048;                    !- Vertex 4 Zcoordinate

BUILDINGSURFACE:DETAILED,
    2F_Area_A_Floor,          !- Name
    Floor,                    !- Surface Type
    ExtFloor,                 !- Construction Name
    2F_Area_A,                !- Zone Name
    ,                         !- Space Name
    Ground,                   !- Outside Boundary Condition
    ,                         !- Outside Boundary Condition Object
    NoSun,                    !- Sun Exposure
    NoWind,                   !- Wind Exposure
    autocalculate,            !- View Factor to Ground
    4,                        !- Number of Vertices
    0,                        !- Vertex 1 Xcoordinate
    0,                        !- Vertex 1 Ycoordinate
    3.9624,                   !- Vertex 1 Zcoordinate
    0,                        !- Vertex 2 Xcoordinate
    28.130936327827456,       !- Vertex 2 Ycoordinate
    3.9624,                   !- Vertex 2 Zcoordinate
    61.88805992122041,        !- Vertex 3 Xcoordinate
    28.130936327827456,       !- Vertex 3 Ycoordinate
    3.9624,                   !- Vertex 3 Zcoordinate
    61.88805992122041,        !- Vertex 4 Xcoordinate
    0,                        !- Vertex 4 Ycoordinate
    3.9624;                   !- Vertex 4 Zcoordinate

BUILDINGSURFACE:DETAILED,
    2F_Area_A_Roof,           !- Name
    Roof,                     !- Surface Type
    ExtRoof,                  !- Construction Name
    2F_Area_A,                !- Zone Name
    ,                         !- Space Name
    Outdoors,                 !- Outside Boundary Condition
    ,                         !- Outside Boundary Condition Object
    SunExposed,               !- Sun Exposure
    WindExposed,              !- Wind Exposure
    autocalculate,            !- View Factor to Ground
    4,                        !- Number of Vertices
    0,                        !- Vertex 1 Xcoordinate
    0,                        !- Vertex 1 Ycoordinate
    7.010400000000001,        !- Vertex 1 Zcoordinate
    61.88805992122041,        !- Vertex 2 Xcoordinate
    0,                        !- Vertex 2 Ycoordinate
    7.010400000000001,        !- Vertex 2 Zcoordinate
    61.88805992122041,        !- Vertex 3 Xcoordinate
    28.130936327827456,       !- Vertex 3 Ycoordinate
    7.010400000000001,        !- Vertex 3 Zcoordinate
    0,                        !- Vertex 4 Xcoordinate
    28.130936327827456,       !- Vertex 4 Ycoordinate
    7.010400000000001;        !- Vertex 4 Zcoordinate

BUILDINGSURFACE:DETAILED,
    2F_Area_A_S,              !- Name
    Wall,                     !- Surface Type
    ExtWall,                  !- Construction Name
    2F_Area_A,                !- Zone Name
    ,                         !- Space Name
    Outdoors,                 !- Outside Boundary Condition
    ,                         !- Outside Boundary Condition Object
    SunExposed,               !- Sun Exposure
    WindExposed,              !- Wind Exposure
    autocalculate,            !- View Factor to Ground
    4,                        !- Number of Vertices
    0,                        !- Vertex 1 Xcoordinate
    0,                        !- Vertex 1 Ycoordinate
    3.9624,                   !- Vertex 1 Zcoordinate
    61.88805992122041,        !- Vertex 2 Xcoordinate
    0,                        !- Vertex 2 Ycoordinate
    3.9624,                   !- Vertex 2 Zcoordinate
    61.88805992122041,        !- Vertex 3 Xcoordinate
    0,                        !- Vertex 3 Ycoordinate
    7.010400000000001,        !- Vertex 3 Zcoordinate
    0,                        !- Vertex 4 Xcoordinate
    0,                        !- Vertex 4 Ycoordinate
    7.010400000000001;        !- Vertex 4 Zcoordinate

BUILDINGSURFACE:DETAILED,
    2F_Area_A_N,              !- Name
    Wall,                     !- Surface Type
    ExtWall,                  !- Construction Name
    2F_Area_A,                !- Zone Name
    ,                         !- Space Name
    Outdoors,                 !- Outside Boundary Condition
    ,                         !- Outside Boundary Condition Object
    SunExposed,               !- Sun Exposure
    WindExposed,              !- Wind Exposure
    autocalculate,            !- View Factor to Ground
    4,                        !- Number of Vertices
    61.88805992122041,        !- Vertex 1 Xcoordinate
    28.130936327827456,       !- Vertex 1 Ycoordinate
    3.9624,                   !- Vertex 1 Zcoordinate
    0,                        !- Vertex 2 Xcoordinate
    28.130936327827456,       !- Vertex 2 Ycoordinate
    3.9624,                   !- Vertex 2 Zcoordinate
    0,                        !- Vertex 3 Xcoordinate
    28.130936327827456,       !- Vertex 3 Ycoordinate
    7.010400000000001,        !- Vertex 3 Zcoordinate
    61.88805992122041,        !- Vertex 4 Xcoordinate
    28.130936327827456,       !- Vertex 4 Ycoordinate
    7.010400000000001;        !- Vertex 4 Zcoordinate

BUILDINGSURFACE:DETAILED,
    2F_Area_A_E,              !- Name
    Wall,                     !- Surface Type
    ExtWall,                  !- Construction Name
    2F_Area_A,                !- Zone Name
    ,                         !- Space Name
    Outdoors,                 !- Outside Boundary Condition
    ,                         !- Outside Boundary Condition Object
    SunExposed,               !- Sun Exposure
    WindExposed,              !- Wind Exposure
    autocalculate,            !- View Factor to Ground
    4,                        !- Number of Vertices
    61.88805992122041,        !- Vertex 1 Xcoordinate
    0,                        !- Vertex 1 Ycoordinate
    3.9624,                   !- Vertex 1 Zcoordinate
    61.88805992122041,        !- Vertex 2 Xcoordinate
    28.130936327827456,       !- Vertex 2 Ycoordinate
    3.9624,                   !- Vertex 2 Zcoordinate
    61.88805992122041,        !- Vertex 3 Xcoordinate
    28.130936327827456,       !- Vertex 3 Ycoordinate
    7.010400000000001,        !- Vertex 3 Zcoordinate
    61.88805992122041,        !- Vertex 4 Xcoordinate
    0,                        !- Vertex 4 Ycoordinate
    7.010400000000001;        !- Vertex 4 Zcoordinate

BUILDINGSURFACE:DETAILED,
    2F_Area_A_W,              !- Name
    Wall,                     !- Surface Type
    ExtWall,                  !- Construction Name
    2F_Area_A,                !- Zone Name
    ,                         !- Space Name
    Outdoors,                 !- Outside Boundary Condition
    ,                         !- Outside Boundary Condition Object
    SunExposed,               !- Sun Exposure
    WindExposed,              !- Wind Exposure
    autocalculate,            !- View Factor to Ground
    4,                        !- Number of Vertices
    0,                        !- Vertex 1 Xcoordinate
    28.130936327827456,       !- Vertex 1 Ycoordinate
    3.9624,                   !- Vertex 1 Zcoordinate
    0,                        !- Vertex 2 Xcoordinate
    0,                        !- Vertex 2 Ycoordinate
    3.9624,                   !- Vertex 2 Zcoordinate
    0,                        !- Vertex 3 Xcoordinate
    0,                        !- Vertex 3 Ycoordinate
    7.010400000000001,        !- Vertex 3 Zcoordinate
    0,                        !- Vertex 4 Xcoordinate
    28.130936327827456,       !- Vertex 4 Ycoordinate
    7.010400000000001;        !- Vertex 4 Zcoordinate

BUILDINGSURFACE:DETAILED,
    2F_Area_B_Floor,          !- Name
    Floor,                    !- Surface Type
    ExtFloor,                 !- Construction Name
    2F_Area_B,                !- Zone Name
    ,                         !- Space Name
    Ground,                   !- Outside Boundary Condition
    ,                         !- Outside Boundary Condition Object
    NoSun,                    !- Sun Exposure
    NoWind,                   !- Wind Exposure
    autocalculate,            !- View Factor to Ground
    4,                        !- Number of Vertices
    63.88805992122041,        !- Vertex 1 Xcoordinate
    0,                        !- Vertex 1 Ycoordinate
    3.9624,                   !- Vertex 1 Zcoordinate
    63.88805992122041,        !- Vertex 2 Xcoordinate
    26.821795389033262,       !- Vertex 2 Ycoordinate
    3.9624,                   !- Vertex 2 Zcoordinate
    122.89600977709358,       !- Vertex 3 Xcoordinate
    26.821795389033262,       !- Vertex 3 Ycoordinate
    3.9624,                   !- Vertex 3 Zcoordinate
    122.89600977709358,       !- Vertex 4 Xcoordinate
    0,                        !- Vertex 4 Ycoordinate
    3.9624;                   !- Vertex 4 Zcoordinate

BUILDINGSURFACE:DETAILED,
    2F_Area_B_Roof,           !- Name
    Roof,                     !- Surface Type
    ExtRoof,                  !- Construction Name
    2F_Area_B,                !- Zone Name
    ,                         !- Space Name
    Outdoors,                 !- Outside Boundary Condition
    ,                         !- Outside Boundary Condition Object
    SunExposed,               !- Sun Exposure
    WindExposed,              !- Wind Exposure
    autocalculate,            !- View Factor to Ground
    4,                        !- Number of Vertices
    63.88805992122041,        !- Vertex 1 Xcoordinate
    0,                        !- Vertex 1 Ycoordinate
    7.010400000000001,        !- Vertex 1 Zcoordinate
    122.89600977709358,       !- Vertex 2 Xcoordinate
    0,                        !- Vertex 2 Ycoordinate
    7.010400000000001,        !- Vertex 2 Zcoordinate
    122.89600977709358,       !- Vertex 3 Xcoordinate
    26.821795389033262,       !- Vertex 3 Ycoordinate
    7.010400000000001,        !- Vertex 3 Zcoordinate
    63.88805992122041,        !- Vertex 4 Xcoordinate
    26.821795389033262,       !- Vertex 4 Ycoordinate
    7.010400000000001;        !- Vertex 4 Zcoordinate

BUILDINGSURFACE:DETAILED,
    2F_Area_B_S,              !- Name
    Wall,                     !- Surface Type
    ExtWall,                  !- Construction Name
    2F_Area_B,                !- Zone Name
    ,                         !- Space Name
    Outdoors,                 !- Outside Boundary Condition
    ,                         !- Outside Boundary Condition Object
    SunExposed,               !- Sun Exposure
    WindExposed,              !- Wind Exposure
    autocalculate,            !- View Factor to Ground
    4,                        !- Number of Vertices
    63.88805992122041,        !- Vertex 1 Xcoordinate
    0,                        !- Vertex 1 Ycoordinate
    3.9624,                   !- Vertex 1 Zcoordinate
    122.89600977709358,       !- Vertex 2 Xcoordinate
    0,                        !- Vertex 2 Ycoordinate
    3.9624,                   !- Vertex 2 Zcoordinate
    122.89600977709358,       !- Vertex 3 Xcoordinate
    0,                        !- Vertex 3 Ycoordinate
    7.010400000000001,        !- Vertex 3 Zcoordinate
    63.88805992122041,        !- Vertex 4 Xcoordinate
    0,                        !- Vertex 4 Ycoordinate
    7.010400000000001;        !- Vertex 4 Zcoordinate

BUILDINGSURFACE:DETAILED,
    2F_Area_B_N,              !- Name
    Wall,                     !- Surface Type
    ExtWall,                  !- Construction Name
    2F_Area_B,                !- Zone Name
    ,                         !- Space Name
    Outdoors,                 !- Outside Boundary Condition
    ,                         !- Outside Boundary Condition Object
    SunExposed,               !- Sun Exposure
    WindExposed,              !- Wind Exposure
    autocalculate,            !- View Factor to Ground
    4,                        !- Number of Vertices
    122.89600977709358,       !- Vertex 1 Xcoordinate
    26.821795389033262,       !- Vertex 1 Ycoordinate
    3.9624,                   !- Vertex 1 Zcoordinate
    63.88805992122041,        !- Vertex 2 Xcoordinate
    26.821795389033262,       !- Vertex 2 Ycoordinate
    3.9624,                   !- Vertex 2 Zcoordinate
    63.88805992122041,        !- Vertex 3 Xcoordinate
    26.821795389033262,       !- Vertex 3 Ycoordinate
    7.010400000000001,        !- Vertex 3 Zcoordinate
    122.89600977709358,       !- Vertex 4 Xcoordinate
    26.821795389033262,       !- Vertex 4 Ycoordinate
    7.010400000000001;        !- Vertex 4 Zcoordinate

BUILDINGSURFACE:DETAILED,
    2F_Area_B_E,              !- Name
    Wall,                     !- Surface Type
    ExtWall,                  !- Construction Name
    2F_Area_B,                !- Zone Name
    ,                         !- Space Name
    Outdoors,                 !- Outside Boundary Condition
    ,                         !- Outside Boundary Condition Object
    SunExposed,               !- Sun Exposure
    WindExposed,              !- Wind Exposure
    autocalculate,            !- View Factor to Ground
    4,                        !- Number of Vertices
    122.89600977709358,       !- Vertex 1 Xcoordinate
    0,                        !- Vertex 1 Ycoordinate
    3.9624,                   !- Vertex 1 Zcoordinate
    122.89600977709358,       !- Vertex 2 Xcoordinate
    26.821795389033262,       !- Vertex 2 Ycoordinate
    3.9624,                   !- Vertex 2 Zcoordinate
    122.89600977709358,       !- Vertex 3 Xcoordinate
    26.821795389033262,       !- Vertex 3 Ycoordinate
    7.010400000000001,        !- Vertex 3 Zcoordinate
    122.89600977709358,       !- Vertex 4 Xcoordinate
    0,                        !- Vertex 4 Ycoordinate
    7.010400000000001;        !- Vertex 4 Zcoordinate

BUILDINGSURFACE:DETAILED,
    2F_Area_B_W,              !- Name
    Wall,                     !- Surface Type
    ExtWall,                  !- Construction Name
    2F_Area_B,                !- Zone Name
    ,                         !- Space Name
    Outdoors,                 !- Outside Boundary Condition
    ,                         !- Outside Boundary Condition Object
    SunExposed,               !- Sun Exposure
    WindExposed,              !- Wind Exposure
    autocalculate,            !- View Factor to Ground
    4,                        !- Number of Vertices
    63.88805992122041,        !- Vertex 1 Xcoordinate
    26.821795389033262,       !- Vertex 1 Ycoordinate
    3.9624,                   !- Vertex 1 Zcoordinate
    63.88805992122041,        !- Vertex 2 Xcoordinate
    0,                        !- Vertex 2 Ycoordinate
    3.9624,                   !- Vertex 2 Zcoordinate
    63.88805992122041,        !- Vertex 3 Xcoordinate
    0,                        !- Vertex 3 Ycoordinate
    7.010400000000001,        !- Vertex 3 Zcoordinate
    63.88805992122041,        !- Vertex 4 Xcoordinate
    26.821795389033262,       !- Vertex 4 Ycoordinate
    7.010400000000001;        !- Vertex 4 Zcoordinate

FENESTRATIONSURFACE:DETAILED,
    1F_Library_IMC_S_Win,     !- Name
    Window,                   !- Surface Type
    ExtWindow,                !- Construction Name
    1F_Library_IMC_S,         !- Building Surface Name
    ,                         !- Outside Boundary Condition Object
    autocalculate,            !- View Factor to Ground
    ,                         !- Frame and Divider Name
    1,                        !- Multiplier
    4,                        !- Number of Vertices
    6.976239569060882,        !- Vertex 1 Xcoordinate
    80,                       !- Vertex 1 Ycoordinate
    0.438912,                 !- Vertex 1 Zcoordinate
    18.886892491847753,       !- Vertex 2 Xcoordinate
    80,                       !- Vertex 2 Ycoordinate
    0.438912,                 !- Vertex 2 Zcoordinate
    18.886892491847753,       !- Vertex 3 Xcoordinate
    80,                       !- Vertex 3 Ycoordinate
    3.218688,                 !- Vertex 3 Zcoordinate
    6.976239569060882,        !- Vertex 4 Xcoordinate
    80,                       !- Vertex 4 Ycoordinate
    3.218688;                 !- Vertex 4 Zcoordinate

FENESTRATIONSURFACE:DETAILED,
    1F_Library_IMC_N_Win,     !- Name
    Window,                   !- Surface Type
    ExtWindow,                !- Construction Name
    1F_Library_IMC_N,         !- Building Surface Name
    ,                         !- Outside Boundary Condition Object
    autocalculate,            !- View Factor to Ground
    ,                         !- Frame and Divider Name
    1,                        !- Multiplier
    4,                        !- Number of Vertices
    18.036131568791546,       !- Vertex 1 Xcoordinate
    94.36840670050479,        !- Vertex 1 Ycoordinate
    0.438912,                 !- Vertex 1 Zcoordinate
    7.827000492117083,        !- Vertex 2 Xcoordinate
    94.36840670050479,        !- Vertex 2 Ycoordinate
    0.438912,                 !- Vertex 2 Zcoordinate
    7.827000492117083,        !- Vertex 3 Xcoordinate
    94.36840670050479,        !- Vertex 3 Ycoordinate
    3.218688,                 !- Vertex 3 Zcoordinate
    18.036131568791546,       !- Vertex 4 Xcoordinate
    94.36840670050479,        !- Vertex 4 Ycoordinate
    3.218688;                 !- Vertex 4 Zcoordinate

FENESTRATIONSURFACE:DETAILED,
    1F_Library_IMC_E_Win,     !- Name
    Window,                   !- Surface Type
    ExtWindow,                !- Construction Name
    1F_Library_IMC_E,         !- Building Surface Name
    ,                         !- Outside Boundary Condition Object
    autocalculate,            !- View Factor to Ground
    ,                         !- Frame and Divider Name
    1,                        !- Multiplier
    4,                        !- Number of Vertices
    25.863132060908633,       !- Vertex 1 Xcoordinate
    84.112011128105,          !- Vertex 1 Ycoordinate
    0.438912,                 !- Vertex 1 Zcoordinate
    25.863132060908633,       !- Vertex 2 Xcoordinate
    90.25639557239981,        !- Vertex 2 Ycoordinate
    0.438912,                 !- Vertex 2 Zcoordinate
    25.863132060908633,       !- Vertex 3 Xcoordinate
    90.25639557239981,        !- Vertex 3 Ycoordinate
    3.218688,                 !- Vertex 3 Zcoordinate
    25.863132060908633,       !- Vertex 4 Xcoordinate
    84.112011128105,          !- Vertex 4 Ycoordinate
    3.218688;                 !- Vertex 4 Zcoordinate

FENESTRATIONSURFACE:DETAILED,
    1F_Library_IMC_W_Win,     !- Name
    Window,                   !- Surface Type
    ExtWindow,                !- Construction Name
    1F_Library_IMC_W,         !- Building Surface Name
    ,                         !- Outside Boundary Condition Object
    autocalculate,            !- View Factor to Ground
    ,                         !- Frame and Divider Name
    1,                        !- Multiplier
    4,                        !- Number of Vertices
    0,                        !- Vertex 1 Xcoordinate
    90.2563955723998,         !- Vertex 1 Ycoordinate
    0.438912,                 !- Vertex 1 Zcoordinate
    0,                        !- Vertex 2 Xcoordinate
    84.112011128105,          !- Vertex 2 Ycoordinate
    0.438912,                 !- Vertex 2 Zcoordinate
    0,                        !- Vertex 3 Xcoordinate
    84.112011128105,          !- Vertex 3 Ycoordinate
    3.218688,                 !- Vertex 3 Zcoordinate
    0,                        !- Vertex 4 Xcoordinate
    90.2563955723998,         !- Vertex 4 Ycoordinate
    3.218688;                 !- Vertex 4 Zcoordinate

FENESTRATIONSURFACE:DETAILED,
    1F_Cafe_Kitchen_S_Win,    !- Name
    Window,                   !- Surface Type
    ExtWindow,                !- Construction Name
    1F_Cafe_Kitchen_S,        !- Building Surface Name
    ,                         !- Outside Boundary Condition Object
    autocalculate,            !- View Factor to Ground
    ,                         !- Frame and Divider Name
    1,                        !- Multiplier
    4,                        !- Number of Vertices
    37.824274039816,          !- Vertex 1 Xcoordinate
    80,                       !- Vertex 1 Ycoordinate
    0.512064,                 !- Vertex 1 Zcoordinate
    53.12378473551149,        !- Vertex 2 Xcoordinate
    80,                       !- Vertex 2 Ycoordinate
    0.512064,                 !- Vertex 2 Zcoordinate
    53.12378473551149,        !- Vertex 3 Xcoordinate
    80,                       !- Vertex 3 Ycoordinate
    3.755136,                 !- Vertex 3 Zcoordinate
    37.824274039816,          !- Vertex 4 Xcoordinate
    80,                       !- Vertex 4 Ycoordinate
    3.755136;                 !- Vertex 4 Zcoordinate

FENESTRATIONSURFACE:DETAILED,
    1F_Cafe_Kitchen_N_Win,    !- Name
    Window,                   !- Surface Type
    ExtWindow,                !- Construction Name
    1F_Cafe_Kitchen_N,        !- Building Surface Name
    ,                         !- Outside Boundary Condition Object
    autocalculate,            !- View Factor to Ground
    ,                         !- Frame and Divider Name
    1,                        !- Multiplier
    4,                        !- Number of Vertices
    52.03096254296181,        !- Vertex 1 Xcoordinate
    98.45655258528345,        !- Vertex 1 Ycoordinate
    0.512064,                 !- Vertex 1 Zcoordinate
    38.917096232365665,       !- Vertex 2 Xcoordinate
    98.45655258528345,        !- Vertex 2 Ycoordinate
    0.512064,                 !- Vertex 2 Zcoordinate
    38.917096232365665,       !- Vertex 3 Xcoordinate
    98.45655258528345,        !- Vertex 3 Ycoordinate
    3.755136,                 !- Vertex 3 Zcoordinate
    52.03096254296181,        !- Vertex 4 Xcoordinate
    98.45655258528345,        !- Vertex 4 Ycoordinate
    3.755136;                 !- Vertex 4 Zcoordinate

FENESTRATIONSURFACE:DETAILED,
    1F_Cafe_Kitchen_E_Win,    !- Name
    Window,                   !- Surface Type
    ExtWindow,                !- Construction Name
    1F_Cafe_Kitchen_E,        !- Building Surface Name
    ,                         !- Outside Boundary Condition Object
    autocalculate,            !- View Factor to Ground
    ,                         !- Frame and Divider Name
    1,                        !- Multiplier
    4,                        !- Number of Vertices
    62.08492671441885,        !- Vertex 1 Xcoordinate
    85.28197393065678,        !- Vertex 1 Ycoordinate
    0.512064,                 !- Vertex 1 Zcoordinate
    62.08492671441885,        !- Vertex 2 Xcoordinate
    93.17457865462667,        !- Vertex 2 Ycoordinate
    0.512064,                 !- Vertex 2 Zcoordinate
    62.08492671441885,        !- Vertex 3 Xcoordinate
    93.17457865462667,        !- Vertex 3 Ycoordinate
    3.755136,                 !- Vertex 3 Zcoordinate
    62.08492671441885,        !- Vertex 4 Xcoordinate
    85.28197393065678,        !- Vertex 4 Ycoordinate
    3.755136;                 !- Vertex 4 Zcoordinate

FENESTRATIONSURFACE:DETAILED,
    1F_Cafe_Kitchen_W_Win,    !- Name
    Window,                   !- Surface Type
    ExtWindow,                !- Construction Name
    1F_Cafe_Kitchen_W,        !- Building Surface Name
    ,                         !- Outside Boundary Condition Object
    autocalculate,            !- View Factor to Ground
    ,                         !- Frame and Divider Name
    1,                        !- Multiplier
    4,                        !- Number of Vertices
    28.863132060908633,       !- Vertex 1 Xcoordinate
    93.17457865462667,        !- Vertex 1 Ycoordinate
    0.512064,                 !- Vertex 1 Zcoordinate
    28.863132060908633,       !- Vertex 2 Xcoordinate
    85.28197393065678,        !- Vertex 2 Ycoordinate
    0.512064,                 !- Vertex 2 Zcoordinate
    28.863132060908633,       !- Vertex 3 Xcoordinate
    85.28197393065678,        !- Vertex 3 Ycoordinate
    3.755136,                 !- Vertex 3 Zcoordinate
    28.863132060908633,       !- Vertex 4 Xcoordinate
    93.17457865462667,        !- Vertex 4 Ycoordinate
    3.755136;                 !- Vertex 4 Zcoordinate

FENESTRATIONSURFACE:DETAILED,
    1F_Gym_S_Win,             !- Name
    Window,                   !- Surface Type
    ExtWindow,                !- Construction Name
    1F_Gym_S,                 !- Building Surface Name
    ,                         !- Outside Boundary Condition Object
    autocalculate,            !- View Factor to Ground
    ,                         !- Frame and Divider Name
    1,                        !- Multiplier
    4,                        !- Number of Vertices
    73.50953636999681,        !- Vertex 1 Xcoordinate
    80,                       !- Vertex 1 Ycoordinate
    0.877824,                 !- Vertex 1 Zcoordinate
    87.89301626976406,        !- Vertex 2 Xcoordinate
    80,                       !- Vertex 2 Ycoordinate
    0.877824,                 !- Vertex 2 Zcoordinate
    87.89301626976406,        !- Vertex 3 Xcoordinate
    80,                       !- Vertex 3 Ycoordinate
    6.437376,                 !- Vertex 3 Zcoordinate
    73.50953636999681,        !- Vertex 4 Xcoordinate
    80,                       !- Vertex 4 Ycoordinate
    6.437376;                 !- Vertex 4 Zcoordinate

FENESTRATIONSURFACE:DETAILED,
    1F_Gym_N_Win,             !- Name
    Window,                   !- Surface Type
    ExtWindow,                !- Construction Name
    1F_Gym_N,                 !- Building Surface Name
    ,                         !- Outside Boundary Condition Object
    autocalculate,            !- View Factor to Ground
    ,                         !- Frame and Divider Name
    1,                        !- Multiplier
    4,                        !- Number of Vertices
    86.86562484835211,        !- Vertex 1 Xcoordinate
    102.30907086494511,       !- Vertex 1 Ycoordinate
    0.877824,                 !- Vertex 1 Zcoordinate
    74.53692779140876,        !- Vertex 2 Xcoordinate
    102.30907086494511,       !- Vertex 2 Ycoordinate
    0.877824,                 !- Vertex 2 Zcoordinate
    74.53692779140876,        !- Vertex 3 Xcoordinate
    102.30907086494511,       !- Vertex 3 Ycoordinate
    6.437376,                 !- Vertex 3 Zcoordinate
    86.86562484835211,        !- Vertex 4 Xcoordinate
    102.30907086494511,       !- Vertex 4 Ycoordinate
    6.437376;                 !- Vertex 4 Zcoordinate

FENESTRATIONSURFACE:DETAILED,
    1F_Gym_E_Win,             !- Name
    Window,                   !- Surface Type
    ExtWindow,                !- Construction Name
    1F_Gym_E,                 !- Building Surface Name
    ,                         !- Outside Boundary Condition Object
    autocalculate,            !- View Factor to Ground
    ,                         !- Frame and Divider Name
    1,                        !- Multiplier
    4,                        !- Number of Vertices
    96.31762592534201,        !- Vertex 1 Xcoordinate
    86.38450383305995,        !- Vertex 1 Ycoordinate
    0.877824,                 !- Vertex 1 Zcoordinate
    96.31762592534201,        !- Vertex 2 Xcoordinate
    95.92456703188516,        !- Vertex 2 Ycoordinate
    0.877824,                 !- Vertex 2 Zcoordinate
    96.31762592534201,        !- Vertex 3 Xcoordinate
    95.92456703188516,        !- Vertex 3 Ycoordinate
    6.437376,                 !- Vertex 3 Zcoordinate
    96.31762592534201,        !- Vertex 4 Xcoordinate
    86.38450383305995,        !- Vertex 4 Ycoordinate
    6.437376;                 !- Vertex 4 Zcoordinate

FENESTRATIONSURFACE:DETAILED,
    1F_Gym_W_Win,             !- Name
    Window,                   !- Surface Type
    ExtWindow,                !- Construction Name
    1F_Gym_W,                 !- Building Surface Name
    ,                         !- Outside Boundary Condition Object
    autocalculate,            !- View Factor to Ground
    ,                         !- Frame and Divider Name
    1,                        !- Multiplier
    4,                        !- Number of Vertices
    65.08492671441886,        !- Vertex 1 Xcoordinate
    95.92456703188516,        !- Vertex 1 Ycoordinate
    0.877824,                 !- Vertex 1 Zcoordinate
    65.08492671441886,        !- Vertex 2 Xcoordinate
    86.38450383305995,        !- Vertex 2 Ycoordinate
    0.877824,                 !- Vertex 2 Zcoordinate
    65.08492671441886,        !- Vertex 3 Xcoordinate
    86.38450383305995,        !- Vertex 3 Ycoordinate
    6.437376,                 !- Vertex 3 Zcoordinate
    65.08492671441886,        !- Vertex 4 Xcoordinate
    95.92456703188516,        !- Vertex 4 Ycoordinate
    6.437376;                 !- Vertex 4 Zcoordinate

FENESTRATIONSURFACE:DETAILED,
    1F_Area_A_S_Win,          !- Name
    Window,                   !- Surface Type
    ExtWindow,                !- Construction Name
    1F_Area_A_S,              !- Building Surface Name
    ,                         !- Outside Boundary Condition Object
    autocalculate,            !- View Factor to Ground
    ,                         !- Frame and Divider Name
    1,                        !- Multiplier
    4,                        !- Number of Vertices
    13.12309104715133,        !- Vertex 1 Xcoordinate
    0,                        !- Vertex 1 Ycoordinate
    0.36576,                  !- Vertex 1 Zcoordinate
    35.52836844472677,        !- Vertex 2 Xcoordinate
    0,                        !- Vertex 2 Ycoordinate
    0.36576,                  !- Vertex 2 Zcoordinate
    35.52836844472677,        !- Vertex 3 Xcoordinate
    0,                        !- Vertex 3 Ycoordinate
    2.68224,                  !- Vertex 3 Zcoordinate
    13.12309104715133,        !- Vertex 4 Xcoordinate
    0,                        !- Vertex 4 Ycoordinate
    2.68224;                  !- Vertex 4 Zcoordinate

FENESTRATIONSURFACE:DETAILED,
    1F_Area_A_N_Win,          !- Name
    Window,                   !- Surface Type
    ExtWindow,                !- Construction Name
    1F_Area_A_N,              !- Building Surface Name
    ,                         !- Outside Boundary Condition Object
    autocalculate,            !- View Factor to Ground
    ,                         !- Frame and Divider Name
    1,                        !- Multiplier
    4,                        !- Number of Vertices
    33.9279914877571,         !- Vertex 1 Xcoordinate
    22.1142997690355,         !- Vertex 1 Ycoordinate
    0.36576,                  !- Vertex 1 Zcoordinate
    14.723468004121003,       !- Vertex 2 Xcoordinate
    22.1142997690355,         !- Vertex 2 Ycoordinate
    0.36576,                  !- Vertex 2 Zcoordinate
    14.723468004121003,       !- Vertex 3 Xcoordinate
    22.1142997690355,         !- Vertex 3 Ycoordinate
    2.68224,                  !- Vertex 3 Zcoordinate
    33.9279914877571,         !- Vertex 4 Xcoordinate
    22.1142997690355,         !- Vertex 4 Ycoordinate
    2.68224;                  !- Vertex 4 Zcoordinate

FENESTRATIONSURFACE:DETAILED,
    1F_Area_A_E_Win,          !- Name
    Window,                   !- Surface Type
    ExtWindow,                !- Construction Name
    1F_Area_A_E,              !- Building Surface Name
    ,                         !- Outside Boundary Condition Object
    autocalculate,            !- View Factor to Ground
    ,                         !- Frame and Divider Name
    1,                        !- Multiplier
    4,                        !- Number of Vertices
    48.6514594918781,         !- Vertex 1 Xcoordinate
    6.328763420743713,        !- Vertex 1 Ycoordinate
    0.36576,                  !- Vertex 1 Zcoordinate
    48.6514594918781,         !- Vertex 2 Xcoordinate
    15.78553634829179,        !- Vertex 2 Ycoordinate
    0.36576,                  !- Vertex 2 Zcoordinate
    48.6514594918781,         !- Vertex 3 Xcoordinate
    15.78553634829179,        !- Vertex 3 Ycoordinate
    2.68224,                  !- Vertex 3 Zcoordinate
    48.6514594918781,         !- Vertex 4 Xcoordinate
    6.328763420743713,        !- Vertex 4 Ycoordinate
    2.68224;                  !- Vertex 4 Zcoordinate

FENESTRATIONSURFACE:DETAILED,
    1F_Area_A_W_Win,          !- Name
    Window,                   !- Surface Type
    ExtWindow,                !- Construction Name
    1F_Area_A_W,              !- Building Surface Name
    ,                         !- Outside Boundary Condition Object
    autocalculate,            !- View Factor to Ground
    ,                         !- Frame and Divider Name
    1,                        !- Multiplier
    4,                        !- Number of Vertices
    0,                        !- Vertex 1 Xcoordinate
    15.785536348291789,       !- Vertex 1 Ycoordinate
    0.36576,                  !- Vertex 1 Zcoordinate
    0,                        !- Vertex 2 Xcoordinate
    6.3287634207437105,       !- Vertex 2 Ycoordinate
    0.36576,                  !- Vertex 2 Zcoordinate
    0,                        !- Vertex 3 Xcoordinate
    6.3287634207437105,       !- Vertex 3 Ycoordinate
    2.68224,                  !- Vertex 3 Zcoordinate
    0,                        !- Vertex 4 Xcoordinate
    15.785536348291789,       !- Vertex 4 Ycoordinate
    2.68224;                  !- Vertex 4 Zcoordinate

FENESTRATIONSURFACE:DETAILED,
    1F_Area_B_S_Win,          !- Name
    Window,                   !- Surface Type
    ExtWindow,                !- Construction Name
    1F_Area_B_S,              !- Building Surface Name
    ,                         !- Outside Boundary Condition Object
    autocalculate,            !- View Factor to Ground
    ,                         !- Frame and Divider Name
    1,                        !- Multiplier
    4,                        !- Number of Vertices
    61.366418463080414,       !- Vertex 1 Xcoordinate
    0,                        !- Vertex 1 Ycoordinate
    0.36576,                  !- Vertex 1 Zcoordinate
    79.66025085293802,        !- Vertex 2 Xcoordinate
    0,                        !- Vertex 2 Ycoordinate
    0.36576,                  !- Vertex 2 Zcoordinate
    79.66025085293802,        !- Vertex 3 Xcoordinate
    0,                        !- Vertex 3 Ycoordinate
    2.68224,                  !- Vertex 3 Zcoordinate
    61.366418463080414,       !- Vertex 4 Xcoordinate
    0,                        !- Vertex 4 Ycoordinate
    2.68224;                  !- Vertex 4 Zcoordinate

FENESTRATIONSURFACE:DETAILED,
    1F_Area_B_N_Win,          !- Name
    Window,                   !- Surface Type
    ExtWindow,                !- Construction Name
    1F_Area_B_N,              !- Building Surface Name
    ,                         !- Outside Boundary Condition Object
    autocalculate,            !- View Factor to Ground
    ,                         !- Frame and Divider Name
    1,                        !- Multiplier
    4,                        !- Number of Vertices
    78.35354853937677,        !- Vertex 1 Xcoordinate
    18.056250151028287,       !- Vertex 1 Ycoordinate
    0.36576,                  !- Vertex 1 Zcoordinate
    62.67312077664167,        !- Vertex 2 Xcoordinate
    18.056250151028287,       !- Vertex 2 Ycoordinate
    0.36576,                  !- Vertex 2 Zcoordinate
    62.67312077664167,        !- Vertex 3 Xcoordinate
    18.056250151028287,       !- Vertex 3 Ycoordinate
    2.68224,                  !- Vertex 3 Zcoordinate
    78.35354853937677,        !- Vertex 4 Xcoordinate
    18.056250151028287,       !- Vertex 4 Ycoordinate
    2.68224;                  !- Vertex 4 Zcoordinate

FENESTRATIONSURFACE:DETAILED,
    1F_Area_B_E_Win,          !- Name
    Window,                   !- Surface Type
    ExtWindow,                !- Construction Name
    1F_Area_B_E,              !- Building Surface Name
    ,                         !- Outside Boundary Condition Object
    autocalculate,            !- View Factor to Ground
    ,                         !- Frame and Divider Name
    1,                        !- Multiplier
    4,                        !- Number of Vertices
    90.37520982414034,        !- Vertex 1 Xcoordinate
    5.167413694537701,        !- Vertex 1 Ycoordinate
    0.36576,                  !- Vertex 1 Zcoordinate
    90.37520982414034,        !- Vertex 2 Xcoordinate
    12.888836456490589,       !- Vertex 2 Ycoordinate
    0.36576,                  !- Vertex 2 Zcoordinate
    90.37520982414034,        !- Vertex 3 Xcoordinate
    12.888836456490589,       !- Vertex 3 Ycoordinate
    2.68224,                  !- Vertex 3 Zcoordinate
    90.37520982414034,        !- Vertex 4 Xcoordinate
    5.167413694537701,        !- Vertex 4 Ycoordinate
    2.68224;                  !- Vertex 4 Zcoordinate

FENESTRATIONSURFACE:DETAILED,
    1F_Area_B_W_Win,          !- Name
    Window,                   !- Surface Type
    ExtWindow,                !- Construction Name
    1F_Area_B_W,              !- Building Surface Name
    ,                         !- Outside Boundary Condition Object
    autocalculate,            !- View Factor to Ground
    ,                         !- Frame and Divider Name
    1,                        !- Multiplier
    4,                        !- Number of Vertices
    50.6514594918781,         !- Vertex 1 Xcoordinate
    12.888836456490587,       !- Vertex 1 Ycoordinate
    0.36576,                  !- Vertex 1 Zcoordinate
    50.6514594918781,         !- Vertex 2 Xcoordinate
    5.167413694537698,        !- Vertex 2 Ycoordinate
    0.36576,                  !- Vertex 2 Zcoordinate
    50.6514594918781,         !- Vertex 3 Xcoordinate
    5.167413694537698,        !- Vertex 3 Ycoordinate
    2.68224,                  !- Vertex 3 Zcoordinate
    50.6514594918781,         !- Vertex 4 Xcoordinate
    12.888836456490587,       !- Vertex 4 Ycoordinate
    2.68224;                  !- Vertex 4 Zcoordinate

FENESTRATIONSURFACE:DETAILED,
    1F_Area_C_S_Win,          !- Name
    Window,                   !- Surface Type
    ExtWindow,                !- Construction Name
    1F_Area_C_S,              !- Building Surface Name
    ,                         !- Outside Boundary Condition Object
    autocalculate,            !- View Factor to Ground
    ,                         !- Frame and Divider Name
    1,                        !- Multiplier
    4,                        !- Number of Vertices
    103.61315360091747,       !- Vertex 1 Xcoordinate
    0,                        !- Vertex 1 Ycoordinate
    0.36576,                  !- Vertex 1 Zcoordinate
    122.79988687834184,       !- Vertex 2 Xcoordinate
    0,                        !- Vertex 2 Ycoordinate
    0.36576,                  !- Vertex 2 Zcoordinate
    122.79988687834184,       !- Vertex 3 Xcoordinate
    0,                        !- Vertex 3 Ycoordinate
    2.68224,                  !- Vertex 3 Zcoordinate
    103.61315360091747,       !- Vertex 4 Xcoordinate
    0,                        !- Vertex 4 Ycoordinate
    2.68224;                  !- Vertex 4 Zcoordinate

FENESTRATIONSURFACE:DETAILED,
    1F_Area_C_N_Win,          !- Name
    Window,                   !- Surface Type
    ExtWindow,                !- Construction Name
    1F_Area_C_N,              !- Building Surface Name
    ,                         !- Outside Boundary Condition Object
    autocalculate,            !- View Factor to Ground
    ,                         !- Frame and Divider Name
    1,                        !- Multiplier
    4,                        !- Number of Vertices
    121.42940592995438,       !- Vertex 1 Xcoordinate
    18.937554923172105,       !- Vertex 1 Ycoordinate
    0.36576,                  !- Vertex 1 Zcoordinate
    104.98363454930492,       !- Vertex 2 Xcoordinate
    18.937554923172105,       !- Vertex 2 Ycoordinate
    0.36576,                  !- Vertex 2 Zcoordinate
    104.98363454930492,       !- Vertex 3 Xcoordinate
    18.937554923172105,       !- Vertex 3 Ycoordinate
    2.68224,                  !- Vertex 3 Zcoordinate
    121.42940592995438,       !- Vertex 4 Xcoordinate
    18.937554923172105,       !- Vertex 4 Ycoordinate
    2.68224;                  !- Vertex 4 Zcoordinate

FENESTRATIONSURFACE:DETAILED,
    1F_Area_C_E_Win,          !- Name
    Window,                   !- Surface Type
    ExtWindow,                !- Construction Name
    1F_Area_C_E,              !- Building Surface Name
    ,                         !- Outside Boundary Condition Object
    autocalculate,            !- View Factor to Ground
    ,                         !- Frame and Divider Name
    1,                        !- Multiplier
    4,                        !- Number of Vertices
    134.03783065511897,       !- Vertex 1 Xcoordinate
    5.419629204986754,        !- Vertex 1 Ycoordinate
    0.36576,                  !- Vertex 1 Zcoordinate
    134.03783065511897,       !- Vertex 2 Xcoordinate
    13.517925718185353,       !- Vertex 2 Ycoordinate
    0.36576,                  !- Vertex 2 Zcoordinate
    134.03783065511897,       !- Vertex 3 Xcoordinate
    13.517925718185353,       !- Vertex 3 Ycoordinate
    2.68224,                  !- Vertex 3 Zcoordinate
    134.03783065511897,       !- Vertex 4 Xcoordinate
    5.419629204986754,        !- Vertex 4 Ycoordinate
    2.68224;                  !- Vertex 4 Zcoordinate

FENESTRATIONSURFACE:DETAILED,
    1F_Area_C_W_Win,          !- Name
    Window,                   !- Surface Type
    ExtWindow,                !- Construction Name
    1F_Area_C_W,              !- Building Surface Name
    ,                         !- Outside Boundary Condition Object
    autocalculate,            !- View Factor to Ground
    ,                         !- Frame and Divider Name
    1,                        !- Multiplier
    4,                        !- Number of Vertices
    92.37520982414034,        !- Vertex 1 Xcoordinate
    13.51792571818535,        !- Vertex 1 Ycoordinate
    0.36576,                  !- Vertex 1 Zcoordinate
    92.37520982414034,        !- Vertex 2 Xcoordinate
    5.419629204986752,        !- Vertex 2 Ycoordinate
    0.36576,                  !- Vertex 2 Zcoordinate
    92.37520982414034,        !- Vertex 3 Xcoordinate
    5.419629204986752,        !- Vertex 3 Ycoordinate
    2.68224,                  !- Vertex 3 Zcoordinate
    92.37520982414034,        !- Vertex 4 Xcoordinate
    13.51792571818535,        !- Vertex 4 Ycoordinate
    2.68224;                  !- Vertex 4 Zcoordinate

FENESTRATIONSURFACE:DETAILED,
    1F_Area_D_S_Win,          !- Name
    Window,                   !- Surface Type
    ExtWindow,                !- Construction Name
    1F_Area_D_S,              !- Building Surface Name
    ,                         !- Outside Boundary Condition Object
    autocalculate,            !- View Factor to Ground
    ,                         !- Frame and Divider Name
    1,                        !- Multiplier
    4,                        !- Number of Vertices
    146.7527896263213,        !- Vertex 1 Xcoordinate
    0,                        !- Vertex 1 Ycoordinate
    0.36576,                  !- Vertex 1 Zcoordinate
    165.04662201617887,       !- Vertex 2 Xcoordinate
    0,                        !- Vertex 2 Ycoordinate
    0.36576,                  !- Vertex 2 Zcoordinate
    165.04662201617887,       !- Vertex 3 Xcoordinate
    0,                        !- Vertex 3 Ycoordinate
    2.68224,                  !- Vertex 3 Zcoordinate
    146.7527896263213,        !- Vertex 4 Xcoordinate
    0,                        !- Vertex 4 Ycoordinate
    2.68224;                  !- Vertex 4 Zcoordinate

FENESTRATIONSURFACE:DETAILED,
    1F_Area_D_N_Win,          !- Name
    Window,                   !- Surface Type
    ExtWindow,                !- Construction Name
    1F_Area_D_N,              !- Building Surface Name
    ,                         !- Outside Boundary Condition Object
    autocalculate,            !- View Factor to Ground
    ,                         !- Frame and Divider Name
    1,                        !- Multiplier
    4,                        !- Number of Vertices
    163.7399197026176,        !- Vertex 1 Xcoordinate
    18.056250151028287,       !- Vertex 1 Ycoordinate
    0.36576,                  !- Vertex 1 Zcoordinate
    148.05949193988255,       !- Vertex 2 Xcoordinate
    18.056250151028287,       !- Vertex 2 Ycoordinate
    0.36576,                  !- Vertex 2 Zcoordinate
    148.05949193988255,       !- Vertex 3 Xcoordinate
    18.056250151028287,       !- Vertex 3 Ycoordinate
    2.68224,                  !- Vertex 3 Zcoordinate
    163.7399197026176,        !- Vertex 4 Xcoordinate
    18.056250151028287,       !- Vertex 4 Ycoordinate
    2.68224;                  !- Vertex 4 Zcoordinate

FENESTRATIONSURFACE:DETAILED,
    1F_Area_D_E_Win,          !- Name
    Window,                   !- Surface Type
    ExtWindow,                !- Construction Name
    1F_Area_D_E,              !- Building Surface Name
    ,                         !- Outside Boundary Condition Object
    autocalculate,            !- View Factor to Ground
    ,                         !- Frame and Divider Name
    1,                        !- Multiplier
    4,                        !- Number of Vertices
    175.7615809873812,        !- Vertex 1 Xcoordinate
    5.167413694537701,        !- Vertex 1 Ycoordinate
    0.36576,                  !- Vertex 1 Zcoordinate
    175.7615809873812,        !- Vertex 2 Xcoordinate
    12.888836456490589,       !- Vertex 2 Ycoordinate
    0.36576,                  !- Vertex 2 Zcoordinate
    175.7615809873812,        !- Vertex 3 Xcoordinate
    12.888836456490589,       !- Vertex 3 Ycoordinate
    2.68224,                  !- Vertex 3 Zcoordinate
    175.7615809873812,        !- Vertex 4 Xcoordinate
    5.167413694537701,        !- Vertex 4 Ycoordinate
    2.68224;                  !- Vertex 4 Zcoordinate

FENESTRATIONSURFACE:DETAILED,
    1F_Area_D_W_Win,          !- Name
    Window,                   !- Surface Type
    ExtWindow,                !- Construction Name
    1F_Area_D_W,              !- Building Surface Name
    ,                         !- Outside Boundary Condition Object
    autocalculate,            !- View Factor to Ground
    ,                         !- Frame and Divider Name
    1,                        !- Multiplier
    4,                        !- Number of Vertices
    136.03783065511897,       !- Vertex 1 Xcoordinate
    12.888836456490587,       !- Vertex 1 Ycoordinate
    0.36576,                  !- Vertex 1 Zcoordinate
    136.03783065511897,       !- Vertex 2 Xcoordinate
    5.167413694537698,        !- Vertex 2 Ycoordinate
    0.36576,                  !- Vertex 2 Zcoordinate
    136.03783065511897,       !- Vertex 3 Xcoordinate
    5.167413694537698,        !- Vertex 3 Ycoordinate
    2.68224,                  !- Vertex 3 Zcoordinate
    136.03783065511897,       !- Vertex 4 Xcoordinate
    12.888836456490587,       !- Vertex 4 Ycoordinate
    2.68224;                  !- Vertex 4 Zcoordinate

FENESTRATIONSURFACE:DETAILED,
    2F_Area_A_S_Win,          !- Name
    Window,                   !- Surface Type
    ExtWindow,                !- Construction Name
    2F_Area_A_S,              !- Building Surface Name
    ,                         !- Outside Boundary Condition Object
    autocalculate,            !- View Factor to Ground
    ,                         !- Frame and Divider Name
    1,                        !- Multiplier
    4,                        !- Number of Vertices
    16.693489847171296,       !- Vertex 1 Xcoordinate
    0,                        !- Vertex 1 Ycoordinate
    4.3281600000000005,       !- Vertex 1 Zcoordinate
    45.19457007404912,        !- Vertex 2 Xcoordinate
    0,                        !- Vertex 2 Ycoordinate
    4.3281600000000005,       !- Vertex 2 Zcoordinate
    45.19457007404912,        !- Vertex 3 Xcoordinate
    0,                        !- Vertex 3 Ycoordinate
    6.644640000000001,        !- Vertex 3 Zcoordinate
    16.693489847171296,       !- Vertex 4 Xcoordinate
    0,                        !- Vertex 4 Ycoordinate
    6.644640000000001;        !- Vertex 4 Zcoordinate

FENESTRATIONSURFACE:DETAILED,
    2F_Area_A_N_Win,          !- Name
    Window,                   !- Surface Type
    ExtWindow,                !- Construction Name
    2F_Area_A_N,              !- Building Surface Name
    ,                         !- Outside Boundary Condition Object
    autocalculate,            !- View Factor to Ground
    ,                         !- Frame and Divider Name
    1,                        !- Multiplier
    4,                        !- Number of Vertices
    43.15877862927213,        !- Vertex 1 Xcoordinate
    28.130936327827456,       !- Vertex 1 Ycoordinate
    4.3281600000000005,       !- Vertex 1 Zcoordinate
    18.729281291948276,       !- Vertex 2 Xcoordinate
    28.130936327827456,       !- Vertex 2 Ycoordinate
    4.3281600000000005,       !- Vertex 2 Zcoordinate
    18.729281291948276,       !- Vertex 3 Xcoordinate
    28.130936327827456,       !- Vertex 3 Ycoordinate
    6.644640000000001,        !- Vertex 3 Zcoordinate
    43.15877862927213,        !- Vertex 4 Xcoordinate
    28.130936327827456,       !- Vertex 4 Ycoordinate
    6.644640000000001;        !- Vertex 4 Zcoordinate

FENESTRATIONSURFACE:DETAILED,
    2F_Area_A_E_Win,          !- Name
    Window,                   !- Surface Type
    ExtWindow,                !- Construction Name
    2F_Area_A_E,              !- Building Surface Name
    ,                         !- Outside Boundary Condition Object
    autocalculate,            !- View Factor to Ground
    ,                         !- Frame and Divider Name
    1,                        !- Multiplier
    4,                        !- Number of Vertices
    61.88805992122041,        !- Vertex 1 Xcoordinate
    8.050629804345359,        !- Vertex 1 Ycoordinate
    4.3281600000000005,       !- Vertex 1 Zcoordinate
    61.88805992122041,        !- Vertex 2 Xcoordinate
    20.0803065234821,         !- Vertex 2 Ycoordinate
    4.3281600000000005,       !- Vertex 2 Zcoordinate
    61.88805992122041,        !- Vertex 3 Xcoordinate
    20.0803065234821,         !- Vertex 3 Ycoordinate
    6.644640000000001,        !- Vertex 3 Zcoordinate
    61.88805992122041,        !- Vertex 4 Xcoordinate
    8.050629804345359,        !- Vertex 4 Ycoordinate
    6.644640000000001;        !- Vertex 4 Zcoordinate

FENESTRATIONSURFACE:DETAILED,
    2F_Area_A_W_Win,          !- Name
    Window,                   !- Surface Type
    ExtWindow,                !- Construction Name
    2F_Area_A_W,              !- Building Surface Name
    ,                         !- Outside Boundary Condition Object
    autocalculate,            !- View Factor to Ground
    ,                         !- Frame and Divider Name
    1,                        !- Multiplier
    4,                        !- Number of Vertices
    0,                        !- Vertex 1 Xcoordinate
    20.080306523482097,       !- Vertex 1 Ycoordinate
    4.3281600000000005,       !- Vertex 1 Zcoordinate
    0,                        !- Vertex 2 Xcoordinate
    8.050629804345355,        !- Vertex 2 Ycoordinate
    4.3281600000000005,       !- Vertex 2 Zcoordinate
    0,                        !- Vertex 3 Xcoordinate
    8.050629804345355,        !- Vertex 3 Ycoordinate
    6.644640000000001,        !- Vertex 3 Zcoordinate
    0,                        !- Vertex 4 Xcoordinate
    20.080306523482097,       !- Vertex 4 Ycoordinate
    6.644640000000001;        !- Vertex 4 Zcoordinate

FENESTRATIONSURFACE:DETAILED,
    2F_Area_B_S_Win,          !- Name
    Window,                   !- Surface Type
    ExtWindow,                !- Construction Name
    2F_Area_B_S,              !- Building Surface Name
    ,                         !- Outside Boundary Condition Object
    autocalculate,            !- View Factor to Ground
    ,                         !- Frame and Divider Name
    1,                        !- Multiplier
    4,                        !- Number of Vertices
    79.80467797444936,        !- Vertex 1 Xcoordinate
    0,                        !- Vertex 1 Ycoordinate
    4.3281600000000005,       !- Vertex 1 Zcoordinate
    106.97939172386464,       !- Vertex 2 Xcoordinate
    0,                        !- Vertex 2 Ycoordinate
    4.3281600000000005,       !- Vertex 2 Zcoordinate
    106.97939172386464,       !- Vertex 3 Xcoordinate
    0,                        !- Vertex 3 Ycoordinate
    6.644640000000001,        !- Vertex 3 Zcoordinate
    79.80467797444936,        !- Vertex 4 Xcoordinate
    0,                        !- Vertex 4 Ycoordinate
    6.644640000000001;        !- Vertex 4 Zcoordinate

FENESTRATIONSURFACE:DETAILED,
    2F_Area_B_N_Win,          !- Name
    Window,                   !- Surface Type
    ExtWindow,                !- Construction Name
    2F_Area_B_N,              !- Building Surface Name
    ,                         !- Outside Boundary Condition Object
    autocalculate,            !- View Factor to Ground
    ,                         !- Frame and Divider Name
    1,                        !- Multiplier
    4,                        !- Number of Vertices
    105.03834074176355,       !- Vertex 1 Xcoordinate
    26.821795389033262,       !- Vertex 1 Ycoordinate
    4.3281600000000005,       !- Vertex 1 Zcoordinate
    81.74572895655044,        !- Vertex 2 Xcoordinate
    26.821795389033262,       !- Vertex 2 Ycoordinate
    4.3281600000000005,       !- Vertex 2 Zcoordinate
    81.74572895655044,        !- Vertex 3 Xcoordinate
    26.821795389033262,       !- Vertex 3 Ycoordinate
    6.644640000000001,        !- Vertex 3 Zcoordinate
    105.03834074176355,       !- Vertex 4 Xcoordinate
    26.821795389033262,       !- Vertex 4 Ycoordinate
    6.644640000000001;        !- Vertex 4 Zcoordinate

FENESTRATIONSURFACE:DETAILED,
    2F_Area_B_E_Win,          !- Name
    Window,                   !- Surface Type
    ExtWindow,                !- Construction Name
    2F_Area_B_E,              !- Building Surface Name
    ,                         !- Outside Boundary Condition Object
    autocalculate,            !- View Factor to Ground
    ,                         !- Frame and Divider Name
    1,                        !- Multiplier
    4,                        !- Number of Vertices
    122.89600977709358,       !- Vertex 1 Xcoordinate
    7.675974338308862,        !- Vertex 1 Ycoordinate
    4.3281600000000005,       !- Vertex 1 Zcoordinate
    122.89600977709358,       !- Vertex 2 Xcoordinate
    19.145821050724404,       !- Vertex 2 Ycoordinate
    4.3281600000000005,       !- Vertex 2 Zcoordinate
    122.89600977709358,       !- Vertex 3 Xcoordinate
    19.145821050724404,       !- Vertex 3 Ycoordinate
    6.644640000000001,        !- Vertex 3 Zcoordinate
    122.89600977709358,       !- Vertex 4 Xcoordinate
    7.675974338308862,        !- Vertex 4 Ycoordinate
    6.644640000000001;        !- Vertex 4 Zcoordinate

FENESTRATIONSURFACE:DETAILED,
    2F_Area_B_W_Win,          !- Name
    Window,                   !- Surface Type
    ExtWindow,                !- Construction Name
    2F_Area_B_W,              !- Building Surface Name
    ,                         !- Outside Boundary Condition Object
    autocalculate,            !- View Factor to Ground
    ,                         !- Frame and Divider Name
    1,                        !- Multiplier
    4,                        !- Number of Vertices
    63.88805992122041,        !- Vertex 1 Xcoordinate
    19.1458210507244,         !- Vertex 1 Ycoordinate
    4.3281600000000005,       !- Vertex 1 Zcoordinate
    63.88805992122041,        !- Vertex 2 Xcoordinate
    7.675974338308858,        !- Vertex 2 Ycoordinate
    4.3281600000000005,       !- Vertex 2 Zcoordinate
    63.88805992122041,        !- Vertex 3 Xcoordinate
    7.675974338308858,        !- Vertex 3 Ycoordinate
    6.644640000000001,        !- Vertex 3 Zcoordinate
    63.88805992122041,        !- Vertex 4 Xcoordinate
    19.1458210507244,         !- Vertex 4 Ycoordinate
    6.644640000000001;        !- Vertex 4 Zcoordinate

PEOPLE,
    1F_Library_IMC_People,    !- Name
    1F_Library_IMC,           !- Zone or ZoneList or Space or SpaceList Name
    SCH_Occ_Library,          !- Number of People Schedule Name
    People/Area,              !- Number of People Calculation Method
    ,                         !- Number of People
    0.012,                    !- People per Floor Area
    ,                         !- Floor Area per Person
    0.3,                      !- Fraction Radiant
    autocalculate,            !- Sensible Heat Fraction
    SCH_Activity,             !- Activity Level Schedule Name
    3.82e-08,                 !- Carbon Dioxide Generation Rate
    No,                       !- Enable ASHRAE 55 Comfort Warnings
    EnclosureAveraged,        !- Mean Radiant Temperature Calculation Type
    ,                         !- Surface NameAngle Factor List Name
    ,                         !- Work Efficiency Schedule Name
    ClothingInsulationSchedule,    !- Clothing Insulation Calculation Method
    ,                         !- Clothing Insulation Calculation Method Schedule Name
    ,                         !- Clothing Insulation Schedule Name
    ,                         !- Air Velocity Schedule Name
    ,                         !- Thermal Comfort Model 1 Type
    ,                         !- Thermal Comfort Model 2 Type
    ,                         !- Thermal Comfort Model 3 Type
    ,                         !- Thermal Comfort Model 4 Type
    ,                         !- Thermal Comfort Model 5 Type
    ,                         !- Thermal Comfort Model 6 Type
    ,                         !- Thermal Comfort Model 7 Type
    ,                         !- Ankle Level Air Velocity Schedule Name
    15.56,                    !- Cold Stress Temperature Threshold
    30;                       !- Heat Stress Temperature Threshold

PEOPLE,
    1F_Cafe_Kitchen_People,    !- Name
    1F_Cafe_Kitchen,          !- Zone or ZoneList or Space or SpaceList Name
    SCH_Occ_Cafe,             !- Number of People Schedule Name
    People/Area,              !- Number of People Calculation Method
    ,                         !- Number of People
    0.18,                     !- People per Floor Area
    ,                         !- Floor Area per Person
    0.3,                      !- Fraction Radiant
    autocalculate,            !- Sensible Heat Fraction
    SCH_Activity_Cafe,        !- Activity Level Schedule Name
    3.82e-08,                 !- Carbon Dioxide Generation Rate
    No,                       !- Enable ASHRAE 55 Comfort Warnings
    EnclosureAveraged,        !- Mean Radiant Temperature Calculation Type
    ,                         !- Surface NameAngle Factor List Name
    ,                         !- Work Efficiency Schedule Name
    ClothingInsulationSchedule,    !- Clothing Insulation Calculation Method
    ,                         !- Clothing Insulation Calculation Method Schedule Name
    ,                         !- Clothing Insulation Schedule Name
    ,                         !- Air Velocity Schedule Name
    ,                         !- Thermal Comfort Model 1 Type
    ,                         !- Thermal Comfort Model 2 Type
    ,                         !- Thermal Comfort Model 3 Type
    ,                         !- Thermal Comfort Model 4 Type
    ,                         !- Thermal Comfort Model 5 Type
    ,                         !- Thermal Comfort Model 6 Type
    ,                         !- Thermal Comfort Model 7 Type
    ,                         !- Ankle Level Air Velocity Schedule Name
    15.56,                    !- Cold Stress Temperature Threshold
    30;                       !- Heat Stress Temperature Threshold

PEOPLE,
    1F_Gym_People,            !- Name
    1F_Gym,                   !- Zone or ZoneList or Space or SpaceList Name
    SCH_Occ_Gym,              !- Number of People Schedule Name
    People/Area,              !- Number of People Calculation Method
    ,                         !- Number of People
    0.008,                    !- People per Floor Area
    ,                         !- Floor Area per Person
    0.3,                      !- Fraction Radiant
    autocalculate,            !- Sensible Heat Fraction
    SCH_Activity_Gym,         !- Activity Level Schedule Name
    3.82e-08,                 !- Carbon Dioxide Generation Rate
    No,                       !- Enable ASHRAE 55 Comfort Warnings
    EnclosureAveraged,        !- Mean Radiant Temperature Calculation Type
    ,                         !- Surface NameAngle Factor List Name
    ,                         !- Work Efficiency Schedule Name
    ClothingInsulationSchedule,    !- Clothing Insulation Calculation Method
    ,                         !- Clothing Insulation Calculation Method Schedule Name
    ,                         !- Clothing Insulation Schedule Name
    ,                         !- Air Velocity Schedule Name
    ,                         !- Thermal Comfort Model 1 Type
    ,                         !- Thermal Comfort Model 2 Type
    ,                         !- Thermal Comfort Model 3 Type
    ,                         !- Thermal Comfort Model 4 Type
    ,                         !- Thermal Comfort Model 5 Type
    ,                         !- Thermal Comfort Model 6 Type
    ,                         !- Thermal Comfort Model 7 Type
    ,                         !- Ankle Level Air Velocity Schedule Name
    15.56,                    !- Cold Stress Temperature Threshold
    30;                       !- Heat Stress Temperature Threshold

PEOPLE,
    1F_Area_A_People,         !- Name
    1F_Area_A,                !- Zone or ZoneList or Space or SpaceList Name
    SCH_Occ_Class,            !- Number of People Schedule Name
    People/Area,              !- Number of People Calculation Method
    ,                         !- Number of People
    0.045,                    !- People per Floor Area
    ,                         !- Floor Area per Person
    0.3,                      !- Fraction Radiant
    autocalculate,            !- Sensible Heat Fraction
    SCH_Activity,             !- Activity Level Schedule Name
    3.82e-08,                 !- Carbon Dioxide Generation Rate
    No,                       !- Enable ASHRAE 55 Comfort Warnings
    EnclosureAveraged,        !- Mean Radiant Temperature Calculation Type
    ,                         !- Surface NameAngle Factor List Name
    ,                         !- Work Efficiency Schedule Name
    ClothingInsulationSchedule,    !- Clothing Insulation Calculation Method
    ,                         !- Clothing Insulation Calculation Method Schedule Name
    ,                         !- Clothing Insulation Schedule Name
    ,                         !- Air Velocity Schedule Name
    ,                         !- Thermal Comfort Model 1 Type
    ,                         !- Thermal Comfort Model 2 Type
    ,                         !- Thermal Comfort Model 3 Type
    ,                         !- Thermal Comfort Model 4 Type
    ,                         !- Thermal Comfort Model 5 Type
    ,                         !- Thermal Comfort Model 6 Type
    ,                         !- Thermal Comfort Model 7 Type
    ,                         !- Ankle Level Air Velocity Schedule Name
    15.56,                    !- Cold Stress Temperature Threshold
    30;                       !- Heat Stress Temperature Threshold

PEOPLE,
    1F_Area_B_People,         !- Name
    1F_Area_B,                !- Zone or ZoneList or Space or SpaceList Name
    SCH_Occ_Class,            !- Number of People Schedule Name
    People/Area,              !- Number of People Calculation Method
    ,                         !- Number of People
    0.045,                    !- People per Floor Area
    ,                         !- Floor Area per Person
    0.3,                      !- Fraction Radiant
    autocalculate,            !- Sensible Heat Fraction
    SCH_Activity,             !- Activity Level Schedule Name
    3.82e-08,                 !- Carbon Dioxide Generation Rate
    No,                       !- Enable ASHRAE 55 Comfort Warnings
    EnclosureAveraged,        !- Mean Radiant Temperature Calculation Type
    ,                         !- Surface NameAngle Factor List Name
    ,                         !- Work Efficiency Schedule Name
    ClothingInsulationSchedule,    !- Clothing Insulation Calculation Method
    ,                         !- Clothing Insulation Calculation Method Schedule Name
    ,                         !- Clothing Insulation Schedule Name
    ,                         !- Air Velocity Schedule Name
    ,                         !- Thermal Comfort Model 1 Type
    ,                         !- Thermal Comfort Model 2 Type
    ,                         !- Thermal Comfort Model 3 Type
    ,                         !- Thermal Comfort Model 4 Type
    ,                         !- Thermal Comfort Model 5 Type
    ,                         !- Thermal Comfort Model 6 Type
    ,                         !- Thermal Comfort Model 7 Type
    ,                         !- Ankle Level Air Velocity Schedule Name
    15.56,                    !- Cold Stress Temperature Threshold
    30;                       !- Heat Stress Temperature Threshold

PEOPLE,
    1F_Area_C_People,         !- Name
    1F_Area_C,                !- Zone or ZoneList or Space or SpaceList Name
    SCH_Occ_Class,            !- Number of People Schedule Name
    People/Area,              !- Number of People Calculation Method
    ,                         !- Number of People
    0.045,                    !- People per Floor Area
    ,                         !- Floor Area per Person
    0.3,                      !- Fraction Radiant
    autocalculate,            !- Sensible Heat Fraction
    SCH_Activity,             !- Activity Level Schedule Name
    3.82e-08,                 !- Carbon Dioxide Generation Rate
    No,                       !- Enable ASHRAE 55 Comfort Warnings
    EnclosureAveraged,        !- Mean Radiant Temperature Calculation Type
    ,                         !- Surface NameAngle Factor List Name
    ,                         !- Work Efficiency Schedule Name
    ClothingInsulationSchedule,    !- Clothing Insulation Calculation Method
    ,                         !- Clothing Insulation Calculation Method Schedule Name
    ,                         !- Clothing Insulation Schedule Name
    ,                         !- Air Velocity Schedule Name
    ,                         !- Thermal Comfort Model 1 Type
    ,                         !- Thermal Comfort Model 2 Type
    ,                         !- Thermal Comfort Model 3 Type
    ,                         !- Thermal Comfort Model 4 Type
    ,                         !- Thermal Comfort Model 5 Type
    ,                         !- Thermal Comfort Model 6 Type
    ,                         !- Thermal Comfort Model 7 Type
    ,                         !- Ankle Level Air Velocity Schedule Name
    15.56,                    !- Cold Stress Temperature Threshold
    30;                       !- Heat Stress Temperature Threshold

PEOPLE,
    1F_Area_D_People,         !- Name
    1F_Area_D,                !- Zone or ZoneList or Space or SpaceList Name
    SCH_Occ_Class,            !- Number of People Schedule Name
    People/Area,              !- Number of People Calculation Method
    ,                         !- Number of People
    0.045,                    !- People per Floor Area
    ,                         !- Floor Area per Person
    0.3,                      !- Fraction Radiant
    autocalculate,            !- Sensible Heat Fraction
    SCH_Activity,             !- Activity Level Schedule Name
    3.82e-08,                 !- Carbon Dioxide Generation Rate
    No,                       !- Enable ASHRAE 55 Comfort Warnings
    EnclosureAveraged,        !- Mean Radiant Temperature Calculation Type
    ,                         !- Surface NameAngle Factor List Name
    ,                         !- Work Efficiency Schedule Name
    ClothingInsulationSchedule,    !- Clothing Insulation Calculation Method
    ,                         !- Clothing Insulation Calculation Method Schedule Name
    ,                         !- Clothing Insulation Schedule Name
    ,                         !- Air Velocity Schedule Name
    ,                         !- Thermal Comfort Model 1 Type
    ,                         !- Thermal Comfort Model 2 Type
    ,                         !- Thermal Comfort Model 3 Type
    ,                         !- Thermal Comfort Model 4 Type
    ,                         !- Thermal Comfort Model 5 Type
    ,                         !- Thermal Comfort Model 6 Type
    ,                         !- Thermal Comfort Model 7 Type
    ,                         !- Ankle Level Air Velocity Schedule Name
    15.56,                    !- Cold Stress Temperature Threshold
    30;                       !- Heat Stress Temperature Threshold

PEOPLE,
    2F_Area_A_People,         !- Name
    2F_Area_A,                !- Zone or ZoneList or Space or SpaceList Name
    SCH_Occ_Class,            !- Number of People Schedule Name
    People/Area,              !- Number of People Calculation Method
    ,                         !- Number of People
    0.045,                    !- People per Floor Area
    ,                         !- Floor Area per Person
    0.3,                      !- Fraction Radiant
    autocalculate,            !- Sensible Heat Fraction
    SCH_Activity,             !- Activity Level Schedule Name
    3.82e-08,                 !- Carbon Dioxide Generation Rate
    No,                       !- Enable ASHRAE 55 Comfort Warnings
    EnclosureAveraged,        !- Mean Radiant Temperature Calculation Type
    ,                         !- Surface NameAngle Factor List Name
    ,                         !- Work Efficiency Schedule Name
    ClothingInsulationSchedule,    !- Clothing Insulation Calculation Method
    ,                         !- Clothing Insulation Calculation Method Schedule Name
    ,                         !- Clothing Insulation Schedule Name
    ,                         !- Air Velocity Schedule Name
    ,                         !- Thermal Comfort Model 1 Type
    ,                         !- Thermal Comfort Model 2 Type
    ,                         !- Thermal Comfort Model 3 Type
    ,                         !- Thermal Comfort Model 4 Type
    ,                         !- Thermal Comfort Model 5 Type
    ,                         !- Thermal Comfort Model 6 Type
    ,                         !- Thermal Comfort Model 7 Type
    ,                         !- Ankle Level Air Velocity Schedule Name
    15.56,                    !- Cold Stress Temperature Threshold
    30;                       !- Heat Stress Temperature Threshold

PEOPLE,
    2F_Area_B_People,         !- Name
    2F_Area_B,                !- Zone or ZoneList or Space or SpaceList Name
    SCH_Occ_Class,            !- Number of People Schedule Name
    People/Area,              !- Number of People Calculation Method
    ,                         !- Number of People
    0.045,                    !- People per Floor Area
    ,                         !- Floor Area per Person
    0.3,                      !- Fraction Radiant
    autocalculate,            !- Sensible Heat Fraction
    SCH_Activity,             !- Activity Level Schedule Name
    3.82e-08,                 !- Carbon Dioxide Generation Rate
    No,                       !- Enable ASHRAE 55 Comfort Warnings
    EnclosureAveraged,        !- Mean Radiant Temperature Calculation Type
    ,                         !- Surface NameAngle Factor List Name
    ,                         !- Work Efficiency Schedule Name
    ClothingInsulationSchedule,    !- Clothing Insulation Calculation Method
    ,                         !- Clothing Insulation Calculation Method Schedule Name
    ,                         !- Clothing Insulation Schedule Name
    ,                         !- Air Velocity Schedule Name
    ,                         !- Thermal Comfort Model 1 Type
    ,                         !- Thermal Comfort Model 2 Type
    ,                         !- Thermal Comfort Model 3 Type
    ,                         !- Thermal Comfort Model 4 Type
    ,                         !- Thermal Comfort Model 5 Type
    ,                         !- Thermal Comfort Model 6 Type
    ,                         !- Thermal Comfort Model 7 Type
    ,                         !- Ankle Level Air Velocity Schedule Name
    15.56,                    !- Cold Stress Temperature Threshold
    30;                       !- Heat Stress Temperature Threshold

LIGHTS,
    1F_Library_IMC_Lights,    !- Name
    1F_Library_IMC,           !- Zone or ZoneList or Space or SpaceList Name
    SCH_Lights,               !- Schedule Name
    Watts/Area,               !- Design Level Calculation Method
    ,                         !- Lighting Level
    7.36251,                  !- Watts per Floor Area
    ,                         !- Watts per Person
    0,                        !- Return Air Fraction
    0.2,                      !- Fraction Radiant
    0.2,                      !- Fraction Visible
    1,                        !- Fraction Replaceable
    General,                  !- EndUse Subcategory
    No,                       !- Return Air Fraction Calculated from Plenum Temperature
    0,                        !- Return Air Fraction Function of Plenum Temperature Coefficient 1
    0;                        !- Return Air Fraction Function of Plenum Temperature Coefficient 2

LIGHTS,
    1F_Cafe_Kitchen_Lights,    !- Name
    1F_Cafe_Kitchen,          !- Zone or ZoneList or Space or SpaceList Name
    SCH_Lights,               !- Schedule Name
    Watts/Area,               !- Design Level Calculation Method
    ,                         !- Lighting Level
    6.54445,                  !- Watts per Floor Area
    ,                         !- Watts per Person
    0,                        !- Return Air Fraction
    0.2,                      !- Fraction Radiant
    0.2,                      !- Fraction Visible
    1,                        !- Fraction Replaceable
    General,                  !- EndUse Subcategory
    No,                       !- Return Air Fraction Calculated from Plenum Temperature
    0,                        !- Return Air Fraction Function of Plenum Temperature Coefficient 1
    0;                        !- Return Air Fraction Function of Plenum Temperature Coefficient 2

LIGHTS,
    1F_Gym_Lights,            !- Name
    1F_Gym,                   !- Zone or ZoneList or Space or SpaceList Name
    SCH_Lights_Gym,           !- Schedule Name
    Watts/Area,               !- Design Level Calculation Method
    ,                         !- Lighting Level
    5.31737,                 !- Watts per Floor Area
    ,                         !- Watts per Person
    0,                        !- Return Air Fraction
    0.2,                      !- Fraction Radiant
    0.2,                      !- Fraction Visible
    1,                        !- Fraction Replaceable
    General,                  !- EndUse Subcategory
    No,                       !- Return Air Fraction Calculated from Plenum Temperature
    0,                        !- Return Air Fraction Function of Plenum Temperature Coefficient 1
    0;                        !- Return Air Fraction Function of Plenum Temperature Coefficient 2

LIGHTS,
    1F_Area_A_Lights,         !- Name
    1F_Area_A,                !- Zone or ZoneList or Space or SpaceList Name
    SCH_Lights,               !- Schedule Name
    Watts/Area,               !- Design Level Calculation Method
    ,                         !- Lighting Level
    6.54445,                  !- Watts per Floor Area
    ,                         !- Watts per Person
    0,                        !- Return Air Fraction
    0.2,                      !- Fraction Radiant
    0.2,                      !- Fraction Visible
    1,                        !- Fraction Replaceable
    General,                  !- EndUse Subcategory
    No,                       !- Return Air Fraction Calculated from Plenum Temperature
    0,                        !- Return Air Fraction Function of Plenum Temperature Coefficient 1
    0;                        !- Return Air Fraction Function of Plenum Temperature Coefficient 2

LIGHTS,
    1F_Area_B_Lights,         !- Name
    1F_Area_B,                !- Zone or ZoneList or Space or SpaceList Name
    SCH_Lights,               !- Schedule Name
    Watts/Area,               !- Design Level Calculation Method
    ,                         !- Lighting Level
    6.54445,                  !- Watts per Floor Area
    ,                         !- Watts per Person
    0,                        !- Return Air Fraction
    0.2,                      !- Fraction Radiant
    0.2,                      !- Fraction Visible
    1,                        !- Fraction Replaceable
    General,                  !- EndUse Subcategory
    No,                       !- Return Air Fraction Calculated from Plenum Temperature
    0,                        !- Return Air Fraction Function of Plenum Temperature Coefficient 1
    0;                        !- Return Air Fraction Function of Plenum Temperature Coefficient 2

LIGHTS,
    1F_Area_C_Lights,         !- Name
    1F_Area_C,                !- Zone or ZoneList or Space or SpaceList Name
    SCH_Lights,               !- Schedule Name
    Watts/Area,               !- Design Level Calculation Method
    ,                         !- Lighting Level
    6.54445,                  !- Watts per Floor Area
    ,                         !- Watts per Person
    0,                        !- Return Air Fraction
    0.2,                      !- Fraction Radiant
    0.2,                      !- Fraction Visible
    1,                        !- Fraction Replaceable
    General,                  !- EndUse Subcategory
    No,                       !- Return Air Fraction Calculated from Plenum Temperature
    0,                        !- Return Air Fraction Function of Plenum Temperature Coefficient 1
    0;                        !- Return Air Fraction Function of Plenum Temperature Coefficient 2

LIGHTS,
    1F_Area_D_Lights,         !- Name
    1F_Area_D,                !- Zone or ZoneList or Space or SpaceList Name
    SCH_Lights,               !- Schedule Name
    Watts/Area,               !- Design Level Calculation Method
    ,                         !- Lighting Level
    6.54445,                  !- Watts per Floor Area
    ,                         !- Watts per Person
    0,                        !- Return Air Fraction
    0.2,                      !- Fraction Radiant
    0.2,                      !- Fraction Visible
    1,                        !- Fraction Replaceable
    General,                  !- EndUse Subcategory
    No,                       !- Return Air Fraction Calculated from Plenum Temperature
    0,                        !- Return Air Fraction Function of Plenum Temperature Coefficient 1
    0;                        !- Return Air Fraction Function of Plenum Temperature Coefficient 2

LIGHTS,
    2F_Area_A_Lights,         !- Name
    2F_Area_A,                !- Zone or ZoneList or Space or SpaceList Name
    SCH_Lights,               !- Schedule Name
    Watts/Area,               !- Design Level Calculation Method
    ,                         !- Lighting Level
    6.54445,                  !- Watts per Floor Area
    ,                         !- Watts per Person
    0,                        !- Return Air Fraction
    0.2,                      !- Fraction Radiant
    0.2,                      !- Fraction Visible
    1,                        !- Fraction Replaceable
    General,                  !- EndUse Subcategory
    No,                       !- Return Air Fraction Calculated from Plenum Temperature
    0,                        !- Return Air Fraction Function of Plenum Temperature Coefficient 1
    0;                        !- Return Air Fraction Function of Plenum Temperature Coefficient 2

LIGHTS,
    2F_Area_B_Lights,         !- Name
    2F_Area_B,                !- Zone or ZoneList or Space or SpaceList Name
    SCH_Lights,               !- Schedule Name
    Watts/Area,               !- Design Level Calculation Method
    ,                         !- Lighting Level
    6.54445,                  !- Watts per Floor Area
    ,                         !- Watts per Person
    0,                        !- Return Air Fraction
    0.2,                      !- Fraction Radiant
    0.2,                      !- Fraction Visible
    1,                        !- Fraction Replaceable
    General,                  !- EndUse Subcategory
    No,                       !- Return Air Fraction Calculated from Plenum Temperature
    0,                        !- Return Air Fraction Function of Plenum Temperature Coefficient 1
    0;                        !- Return Air Fraction Function of Plenum Temperature Coefficient 2

ELECTRICEQUIPMENT,
    1F_Library_IMC_Equip,     !- Name
    1F_Library_IMC,           !- Zone or ZoneList or Space or SpaceList Name
    SCH_Equip,                !- Schedule Name
    Watts/Area,               !- Design Level Calculation Method
    ,                         !- Design Level
    5.16667,                  !- Watts per Floor Area
    ,                         !- Watts per Person
    0,                        !- Fraction Latent
    0.3,                      !- Fraction Radiant
    0,                        !- Fraction Lost
    General;                  !- EndUse Subcategory

ELECTRICEQUIPMENT,
    1F_Library_IMC_FanProxy,    !- Name
    1F_Library_IMC,           !- Zone or ZoneList or Space or SpaceList Name
    SCH_HVAC,                 !- Schedule Name
    Watts/Area,               !- Design Level Calculation Method
    ,                         !- Design Level
    1.20000,                      !- Watts per Floor Area
    ,                         !- Watts per Person
    0,                        !- Fraction Latent
    0,                        !- Fraction Radiant
    0,                        !- Fraction Lost
    Fans;                     !- EndUse Subcategory

ELECTRICEQUIPMENT,
    1F_Cafe_Kitchen_Equip,    !- Name
    1F_Cafe_Kitchen,          !- Zone or ZoneList or Space or SpaceList Name
    SCH_Equip,                !- Schedule Name
    Watts/Area,               !- Design Level Calculation Method
    ,                         !- Design Level
    2.58334,                  !- Watts per Floor Area
    ,                         !- Watts per Person
    0,                        !- Fraction Latent
    0.3,                      !- Fraction Radiant
    0,                        !- Fraction Lost
    General;                  !- EndUse Subcategory

ELECTRICEQUIPMENT,
    1F_Cafe_Kitchen_Kitchen,    !- Name
    1F_Cafe_Kitchen,          !- Zone or ZoneList or Space or SpaceList Name
    SCH_Kitchen,              !- Schedule Name
    Watts/Area,               !- Design Level Calculation Method
    ,                         !- Design Level
    12.9167,                 !- Watts per Floor Area
    ,                         !- Watts per Person
    0.1,                      !- Fraction Latent
    0.2,                      !- Fraction Radiant
    0.3,                      !- Fraction Lost
    Kitchen;                  !- EndUse Subcategory

ELECTRICEQUIPMENT,
    1F_Cafe_Kitchen_FanProxy,    !- Name
    1F_Cafe_Kitchen,          !- Zone or ZoneList or Space or SpaceList Name
    SCH_HVAC,                 !- Schedule Name
    Watts/Area,               !- Design Level Calculation Method
    ,                         !- Design Level
    1.44000,                      !- Watts per Floor Area
    ,                         !- Watts per Person
    0,                        !- Fraction Latent
    0,                        !- Fraction Radiant
    0,                        !- Fraction Lost
    Fans;                     !- EndUse Subcategory

ELECTRICEQUIPMENT,
    1F_Gym_Equip,             !- Name
    1F_Gym,                   !- Zone or ZoneList or Space or SpaceList Name
    SCH_Equip,                !- Schedule Name
    Watts/Area,               !- Design Level Calculation Method
    ,                         !- Design Level
    1.55,                  !- Watts per Floor Area
    ,                         !- Watts per Person
    0,                        !- Fraction Latent
    0.3,                      !- Fraction Radiant
    0,                        !- Fraction Lost
    General;                  !- EndUse Subcategory

ELECTRICEQUIPMENT,
    1F_Gym_FanProxy,          !- Name
    1F_Gym,                   !- Zone or ZoneList or Space or SpaceList Name
    SCH_HVAC,                 !- Schedule Name
    Watts/Area,               !- Design Level Calculation Method
    ,                         !- Design Level
    0.96000,                      !- Watts per Floor Area
    ,                         !- Watts per Person
    0,                        !- Fraction Latent
    0,                        !- Fraction Radiant
    0,                        !- Fraction Lost
    Fans;                     !- EndUse Subcategory

ELECTRICEQUIPMENT,
    1F_Area_A_Equip,          !- Name
    1F_Area_A,                !- Zone or ZoneList or Space or SpaceList Name
    SCH_Equip,                !- Schedule Name
    Watts/Area,               !- Design Level Calculation Method
    ,                         !- Design Level
    3.1,                  !- Watts per Floor Area
    ,                         !- Watts per Person
    0,                        !- Fraction Latent
    0.3,                      !- Fraction Radiant
    0,                        !- Fraction Lost
    General;                  !- EndUse Subcategory

ELECTRICEQUIPMENT,
    1F_Area_A_FanProxy,       !- Name
    1F_Area_A,                !- Zone or ZoneList or Space or SpaceList Name
    SCH_HVAC,                 !- Schedule Name
    Watts/Area,               !- Design Level Calculation Method
    ,                         !- Design Level
    2.13750,                 !- Watts per Floor Area
    ,                         !- Watts per Person
    0,                        !- Fraction Latent
    0,                        !- Fraction Radiant
    0,                        !- Fraction Lost
    Fans;                     !- EndUse Subcategory

ELECTRICEQUIPMENT,
    1F_Area_B_Equip,          !- Name
    1F_Area_B,                !- Zone or ZoneList or Space or SpaceList Name
    SCH_Equip,                !- Schedule Name
    Watts/Area,               !- Design Level Calculation Method
    ,                         !- Design Level
    3.1,                  !- Watts per Floor Area
    ,                         !- Watts per Person
    0,                        !- Fraction Latent
    0.3,                      !- Fraction Radiant
    0,                        !- Fraction Lost
    General;                  !- EndUse Subcategory

ELECTRICEQUIPMENT,
    1F_Area_B_FanProxy,       !- Name
    1F_Area_B,                !- Zone or ZoneList or Space or SpaceList Name
    SCH_HVAC,                 !- Schedule Name
    Watts/Area,               !- Design Level Calculation Method
    ,                         !- Design Level
    1.11780,                  !- Watts per Floor Area
    ,                         !- Watts per Person
    0,                        !- Fraction Latent
    0,                        !- Fraction Radiant
    0,                        !- Fraction Lost
    Fans;                     !- EndUse Subcategory

ELECTRICEQUIPMENT,
    1F_Area_C_Equip,          !- Name
    1F_Area_C,                !- Zone or ZoneList or Space or SpaceList Name
    SCH_Equip,                !- Schedule Name
    Watts/Area,               !- Design Level Calculation Method
    ,                         !- Design Level
    3.1,                  !- Watts per Floor Area
    ,                         !- Watts per Person
    0,                        !- Fraction Latent
    0.3,                      !- Fraction Radiant
    0,                        !- Fraction Lost
    General;                  !- EndUse Subcategory

ELECTRICEQUIPMENT,
    1F_Area_C_FanProxy,       !- Name
    1F_Area_C,                !- Zone or ZoneList or Space or SpaceList Name
    SCH_HVAC,                 !- Schedule Name
    Watts/Area,               !- Design Level Calculation Method
    ,                         !- Design Level
    0.56850,                 !- Watts per Floor Area
    ,                         !- Watts per Person
    0,                        !- Fraction Latent
    0,                        !- Fraction Radiant
    0,                        !- Fraction Lost
    Fans;                     !- EndUse Subcategory

ELECTRICEQUIPMENT,
    1F_Area_D_Equip,          !- Name
    1F_Area_D,                !- Zone or ZoneList or Space or SpaceList Name
    SCH_Equip,                !- Schedule Name
    Watts/Area,               !- Design Level Calculation Method
    ,                         !- Design Level
    3.1,                  !- Watts per Floor Area
    ,                         !- Watts per Person
    0,                        !- Fraction Latent
    0.3,                      !- Fraction Radiant
    0,                        !- Fraction Lost
    General;                  !- EndUse Subcategory

ELECTRICEQUIPMENT,
    1F_Area_D_FanProxy,       !- Name
    1F_Area_D,                !- Zone or ZoneList or Space or SpaceList Name
    SCH_HVAC,                 !- Schedule Name
    Watts/Area,               !- Design Level Calculation Method
    ,                         !- Design Level
    0.96470,                 !- Watts per Floor Area
    ,                         !- Watts per Person
    0,                        !- Fraction Latent
    0,                        !- Fraction Radiant
    0,                        !- Fraction Lost
    Fans;                     !- EndUse Subcategory

ELECTRICEQUIPMENT,
    2F_Area_A_Equip,          !- Name
    2F_Area_A,                !- Zone or ZoneList or Space or SpaceList Name
    SCH_Equip,                !- Schedule Name
    Watts/Area,               !- Design Level Calculation Method
    ,                         !- Design Level
    3.1,                  !- Watts per Floor Area
    ,                         !- Watts per Person
    0,                        !- Fraction Latent
    0.3,                      !- Fraction Radiant
    0,                        !- Fraction Lost
    General;                  !- EndUse Subcategory

ELECTRICEQUIPMENT,
    2F_Area_A_FanProxy,       !- Name
    2F_Area_A,                !- Zone or ZoneList or Space or SpaceList Name
    SCH_HVAC,                 !- Schedule Name
    Watts/Area,               !- Design Level Calculation Method
    ,                         !- Design Level
    1.64210,                 !- Watts per Floor Area
    ,                         !- Watts per Person
    0,                        !- Fraction Latent
    0,                        !- Fraction Radiant
    0,                        !- Fraction Lost
    Fans;                     !- EndUse Subcategory

ELECTRICEQUIPMENT,
    2F_Area_B_Equip,          !- Name
    2F_Area_B,                !- Zone or ZoneList or Space or SpaceList Name
    SCH_Equip,                !- Schedule Name
    Watts/Area,               !- Design Level Calculation Method
    ,                         !- Design Level
    3.1,                  !- Watts per Floor Area
    ,                         !- Watts per Person
    0,                        !- Fraction Latent
    0.3,                      !- Fraction Radiant
    0,                        !- Fraction Lost
    General;                  !- EndUse Subcategory

ELECTRICEQUIPMENT,
    2F_Area_B_FanProxy,       !- Name
    2F_Area_B,                !- Zone or ZoneList or Space or SpaceList Name
    SCH_HVAC,                 !- Schedule Name
    Watts/Area,               !- Design Level Calculation Method
    ,                         !- Design Level
    1.99020,                  !- Watts per Floor Area
    ,                         !- Watts per Person
    0,                        !- Fraction Latent
    0,                        !- Fraction Radiant
    0,                        !- Fraction Lost
    Fans;                     !- EndUse Subcategory

ZONEINFILTRATION:DESIGNFLOWRATE,
    1F_Library_IMC_Infil,     !- Name
    1F_Library_IMC,           !- Zone or ZoneList or Space or SpaceList Name
    SCH_Infil,                !- Schedule Name
    Flow/ExteriorArea,        !- Design Flow Rate Calculation Method
    ,                         !- Design Flow Rate
    ,                         !- Flow Rate per Floor Area
    0.00073,                  !- Flow Rate per Exterior Surface Area
    ,                         !- Air Changes per Hour
    1,                        !- Constant Term Coefficient
    0,                        !- Temperature Term Coefficient
    0,                        !- Velocity Term Coefficient
    0,                        !- Velocity Squared Term Coefficient
    Outdoor;                  !- Density Basis

ZONEINFILTRATION:DESIGNFLOWRATE,
    1F_Cafe_Kitchen_Infil,    !- Name
    1F_Cafe_Kitchen,          !- Zone or ZoneList or Space or SpaceList Name
    SCH_Infil,                !- Schedule Name
    Flow/ExteriorArea,        !- Design Flow Rate Calculation Method
    ,                         !- Design Flow Rate
    ,                         !- Flow Rate per Floor Area
    0.00073,                  !- Flow Rate per Exterior Surface Area
    ,                         !- Air Changes per Hour
    1,                        !- Constant Term Coefficient
    0,                        !- Temperature Term Coefficient
    0,                        !- Velocity Term Coefficient
    0,                        !- Velocity Squared Term Coefficient
    Outdoor;                  !- Density Basis

ZONEINFILTRATION:DESIGNFLOWRATE,
    1F_Gym_Infil,             !- Name
    1F_Gym,                   !- Zone or ZoneList or Space or SpaceList Name
    SCH_Infil,                !- Schedule Name
    Flow/ExteriorArea,        !- Design Flow Rate Calculation Method
    ,                         !- Design Flow Rate
    ,                         !- Flow Rate per Floor Area
    0.00073,                  !- Flow Rate per Exterior Surface Area
    ,                         !- Air Changes per Hour
    1,                        !- Constant Term Coefficient
    0,                        !- Temperature Term Coefficient
    0,                        !- Velocity Term Coefficient
    0,                        !- Velocity Squared Term Coefficient
    Outdoor;                  !- Density Basis

ZONEINFILTRATION:DESIGNFLOWRATE,
    1F_Area_A_Infil,          !- Name
    1F_Area_A,                !- Zone or ZoneList or Space or SpaceList Name
    SCH_Infil,                !- Schedule Name
    Flow/ExteriorArea,        !- Design Flow Rate Calculation Method
    ,                         !- Design Flow Rate
    ,                         !- Flow Rate per Floor Area
    0.00073,                  !- Flow Rate per Exterior Surface Area
    ,                         !- Air Changes per Hour
    1,                        !- Constant Term Coefficient
    0,                        !- Temperature Term Coefficient
    0,                        !- Velocity Term Coefficient
    0,                        !- Velocity Squared Term Coefficient
    Outdoor;                  !- Density Basis

ZONEINFILTRATION:DESIGNFLOWRATE,
    1F_Area_B_Infil,          !- Name
    1F_Area_B,                !- Zone or ZoneList or Space or SpaceList Name
    SCH_Infil,                !- Schedule Name
    Flow/ExteriorArea,        !- Design Flow Rate Calculation Method
    ,                         !- Design Flow Rate
    ,                         !- Flow Rate per Floor Area
    0.00073,                  !- Flow Rate per Exterior Surface Area
    ,                         !- Air Changes per Hour
    1,                        !- Constant Term Coefficient
    0,                        !- Temperature Term Coefficient
    0,                        !- Velocity Term Coefficient
    0,                        !- Velocity Squared Term Coefficient
    Outdoor;                  !- Density Basis

ZONEINFILTRATION:DESIGNFLOWRATE,
    1F_Area_C_Infil,          !- Name
    1F_Area_C,                !- Zone or ZoneList or Space or SpaceList Name
    SCH_Infil,                !- Schedule Name
    Flow/ExteriorArea,        !- Design Flow Rate Calculation Method
    ,                         !- Design Flow Rate
    ,                         !- Flow Rate per Floor Area
    0.00073,                  !- Flow Rate per Exterior Surface Area
    ,                         !- Air Changes per Hour
    1,                        !- Constant Term Coefficient
    0,                        !- Temperature Term Coefficient
    0,                        !- Velocity Term Coefficient
    0,                        !- Velocity Squared Term Coefficient
    Outdoor;                  !- Density Basis

ZONEINFILTRATION:DESIGNFLOWRATE,
    1F_Area_D_Infil,          !- Name
    1F_Area_D,                !- Zone or ZoneList or Space or SpaceList Name
    SCH_Infil,                !- Schedule Name
    Flow/ExteriorArea,        !- Design Flow Rate Calculation Method
    ,                         !- Design Flow Rate
    ,                         !- Flow Rate per Floor Area
    0.00073,                  !- Flow Rate per Exterior Surface Area
    ,                         !- Air Changes per Hour
    1,                        !- Constant Term Coefficient
    0,                        !- Temperature Term Coefficient
    0,                        !- Velocity Term Coefficient
    0,                        !- Velocity Squared Term Coefficient
    Outdoor;                  !- Density Basis

ZONEINFILTRATION:DESIGNFLOWRATE,
    2F_Area_A_Infil,          !- Name
    2F_Area_A,                !- Zone or ZoneList or Space or SpaceList Name
    SCH_Infil,                !- Schedule Name
    Flow/ExteriorArea,        !- Design Flow Rate Calculation Method
    ,                         !- Design Flow Rate
    ,                         !- Flow Rate per Floor Area
    0.00073,                  !- Flow Rate per Exterior Surface Area
    ,                         !- Air Changes per Hour
    1,                        !- Constant Term Coefficient
    0,                        !- Temperature Term Coefficient
    0,                        !- Velocity Term Coefficient
    0,                        !- Velocity Squared Term Coefficient
    Outdoor;                  !- Density Basis

ZONEINFILTRATION:DESIGNFLOWRATE,
    2F_Area_B_Infil,          !- Name
    2F_Area_B,                !- Zone or ZoneList or Space or SpaceList Name
    SCH_Infil,                !- Schedule Name
    Flow/ExteriorArea,        !- Design Flow Rate Calculation Method
    ,                         !- Design Flow Rate
    ,                         !- Flow Rate per Floor Area
    0.00073,                  !- Flow Rate per Exterior Surface Area
    ,                         !- Air Changes per Hour
    1,                        !- Constant Term Coefficient
    0,                        !- Temperature Term Coefficient
    0,                        !- Velocity Term Coefficient
    0,                        !- Velocity Squared Term Coefficient
    Outdoor;                  !- Density Basis

DESIGNSPECIFICATION:OUTDOORAIR,
    1F_Library_IMC_OA,
    ,
    ,
    ,
    ,
    ,
    SCH_OA;              !- Outdoor Air Schedule Name
                        !- Outdoor Air Flow Air Changes per Hour

DESIGNSPECIFICATION:OUTDOORAIR,
    1F_Cafe_Kitchen_OA,
    ,
    ,
    ,
    ,
    ,
    SCH_OA;              !- Outdoor Air Schedule Name
                        !- Outdoor Air Flow Air Changes per Hour

DESIGNSPECIFICATION:OUTDOORAIR,
    1F_Gym_OA,
    ,
    ,
    ,
    ,
    ,
    SCH_OA;              !- Outdoor Air Schedule Name
                        !- Outdoor Air Flow Air Changes per Hour

DESIGNSPECIFICATION:OUTDOORAIR,
    1F_Area_A_OA,
    ,
    ,
    ,
    ,
    ,
    SCH_OA;              !- Outdoor Air Schedule Name
                        !- Outdoor Air Flow Air Changes per Hour

DESIGNSPECIFICATION:OUTDOORAIR,
    1F_Area_B_OA,
    ,
    ,
    ,
    ,
    ,
    SCH_OA;              !- Outdoor Air Schedule Name
                        !- Outdoor Air Flow Air Changes per Hour

DESIGNSPECIFICATION:OUTDOORAIR,
    1F_Area_C_OA,
    ,
    ,
    ,
    ,
    ,
    SCH_OA;              !- Outdoor Air Schedule Name
                        !- Outdoor Air Flow Air Changes per Hour

DESIGNSPECIFICATION:OUTDOORAIR,
    1F_Area_D_OA,
    ,
    ,
    ,
    ,
    ,
    SCH_OA;              !- Outdoor Air Schedule Name
                        !- Outdoor Air Flow Air Changes per Hour

DESIGNSPECIFICATION:OUTDOORAIR,
    2F_Area_A_OA,
    ,
    ,
    ,
    ,
    ,
    SCH_OA;              !- Outdoor Air Schedule Name
                        !- Outdoor Air Flow Air Changes per Hour

DESIGNSPECIFICATION:OUTDOORAIR,
    2F_Area_B_OA,
    ,
    ,
    ,
    ,
    ,
    SCH_OA;              !- Outdoor Air Schedule Name
                        !- Outdoor Air Flow Air Changes per Hour

SIZING:ZONE,
    1F_Library_IMC,           !- Zone or ZoneList Name
    SupplyAirTemperature,     !- Zone Cooling Design Supply Air Temperature Input Method
    12,                       !- Zone Cooling Design Supply Air Temperature
    ,                         !- Zone Cooling Design Supply Air Temperature Difference
    SupplyAirTemperature,     !- Zone Heating Design Supply Air Temperature Input Method
    50,                       !- Zone Heating Design Supply Air Temperature
    ,                         !- Zone Heating Design Supply Air Temperature Difference
    0.0085,                   !- Zone Cooling Design Supply Air Humidity Ratio
    0.008,                    !- Zone Heating Design Supply Air Humidity Ratio
    ,                         !- Design Specification Outdoor Air Object Name
    ,                         !- Zone Heating Sizing Factor
    ,                         !- Zone Cooling Sizing Factor
    DesignDay,                !- Cooling Design Air Flow Method
    0,                        !- Cooling Design Air Flow Rate
    0.000762,                 !- Cooling Minimum Air Flow per Zone Floor Area
    0,                        !- Cooling Minimum Air Flow
    0.2,                      !- Cooling Minimum Air Flow Fraction
    DesignDay,                !- Heating Design Air Flow Method
    0,                        !- Heating Design Air Flow Rate
    0.002032,                 !- Heating Maximum Air Flow per Zone Floor Area
    0.1415762,                !- Heating Maximum Air Flow
    0.3,                      !- Heating Maximum Air Flow Fraction
    ,                         !- Design Specification Zone Air Distribution Object Name
    No,                       !- Account for Dedicated Outdoor Air System
    NeutralSupplyAir,         !- Dedicated Outdoor Air System Control Strategy
    autosize,                 !- Dedicated Outdoor Air Low Setpoint Temperature for Design
    autosize,                 !- Dedicated Outdoor Air High Setpoint Temperature for Design
    Sensible Load Only No Latent Load,    !- Zone Load Sizing Method
    HumidityRatioDifference,    !- Zone Latent Cooling Design Supply Air Humidity Ratio Input Method
    ,                         !- Zone Dehumidification Design Supply Air Humidity Ratio
    0.005,                    !- Zone Cooling Design Supply Air Humidity Ratio Difference
    HumidityRatioDifference,    !- Zone Latent Heating Design Supply Air Humidity Ratio Input Method
    ,                         !- Zone Humidification Design Supply Air Humidity Ratio
    0.005,                    !- Zone Humidification Design Supply Air Humidity Ratio Difference
    ,                         !- Zone Humidistat Dehumidification Set Point Schedule Name
    ,                         !- Zone Humidistat Humidification Set Point Schedule Name
    Coincident,               !- Type of Space Sum to Use
    None,                     !- Heating Coil Sizing Method
    1;                        !- Maximum Heating Capacity To Cooling Load Sizing Ratio

SIZING:ZONE,
    1F_Cafe_Kitchen,          !- Zone or ZoneList Name
    SupplyAirTemperature,     !- Zone Cooling Design Supply Air Temperature Input Method
    12,                       !- Zone Cooling Design Supply Air Temperature
    ,                         !- Zone Cooling Design Supply Air Temperature Difference
    SupplyAirTemperature,     !- Zone Heating Design Supply Air Temperature Input Method
    50,                       !- Zone Heating Design Supply Air Temperature
    ,                         !- Zone Heating Design Supply Air Temperature Difference
    0.0085,                   !- Zone Cooling Design Supply Air Humidity Ratio
    0.008,                    !- Zone Heating Design Supply Air Humidity Ratio
    ,                         !- Design Specification Outdoor Air Object Name
    ,                         !- Zone Heating Sizing Factor
    ,                         !- Zone Cooling Sizing Factor
    DesignDay,                !- Cooling Design Air Flow Method
    0,                        !- Cooling Design Air Flow Rate
    0.000762,                 !- Cooling Minimum Air Flow per Zone Floor Area
    0,                        !- Cooling Minimum Air Flow
    0.2,                      !- Cooling Minimum Air Flow Fraction
    DesignDay,                !- Heating Design Air Flow Method
    0,                        !- Heating Design Air Flow Rate
    0.002032,                 !- Heating Maximum Air Flow per Zone Floor Area
    0.1415762,                !- Heating Maximum Air Flow
    0.3,                      !- Heating Maximum Air Flow Fraction
    ,                         !- Design Specification Zone Air Distribution Object Name
    No,                       !- Account for Dedicated Outdoor Air System
    NeutralSupplyAir,         !- Dedicated Outdoor Air System Control Strategy
    autosize,                 !- Dedicated Outdoor Air Low Setpoint Temperature for Design
    autosize,                 !- Dedicated Outdoor Air High Setpoint Temperature for Design
    Sensible Load Only No Latent Load,    !- Zone Load Sizing Method
    HumidityRatioDifference,    !- Zone Latent Cooling Design Supply Air Humidity Ratio Input Method
    ,                         !- Zone Dehumidification Design Supply Air Humidity Ratio
    0.005,                    !- Zone Cooling Design Supply Air Humidity Ratio Difference
    HumidityRatioDifference,    !- Zone Latent Heating Design Supply Air Humidity Ratio Input Method
    ,                         !- Zone Humidification Design Supply Air Humidity Ratio
    0.005,                    !- Zone Humidification Design Supply Air Humidity Ratio Difference
    ,                         !- Zone Humidistat Dehumidification Set Point Schedule Name
    ,                         !- Zone Humidistat Humidification Set Point Schedule Name
    Coincident,               !- Type of Space Sum to Use
    None,                     !- Heating Coil Sizing Method
    1;                        !- Maximum Heating Capacity To Cooling Load Sizing Ratio

SIZING:ZONE,
    1F_Gym,                   !- Zone or ZoneList Name
    SupplyAirTemperature,     !- Zone Cooling Design Supply Air Temperature Input Method
    12,                       !- Zone Cooling Design Supply Air Temperature
    ,                         !- Zone Cooling Design Supply Air Temperature Difference
    SupplyAirTemperature,     !- Zone Heating Design Supply Air Temperature Input Method
    50,                       !- Zone Heating Design Supply Air Temperature
    ,                         !- Zone Heating Design Supply Air Temperature Difference
    0.0085,                   !- Zone Cooling Design Supply Air Humidity Ratio
    0.008,                    !- Zone Heating Design Supply Air Humidity Ratio
    ,                         !- Design Specification Outdoor Air Object Name
    ,                         !- Zone Heating Sizing Factor
    ,                         !- Zone Cooling Sizing Factor
    DesignDay,                !- Cooling Design Air Flow Method
    0,                        !- Cooling Design Air Flow Rate
    0.000762,                 !- Cooling Minimum Air Flow per Zone Floor Area
    0,                        !- Cooling Minimum Air Flow
    0.2,                      !- Cooling Minimum Air Flow Fraction
    DesignDay,                !- Heating Design Air Flow Method
    0,                        !- Heating Design Air Flow Rate
    0.002032,                 !- Heating Maximum Air Flow per Zone Floor Area
    0.1415762,                !- Heating Maximum Air Flow
    0.3,                      !- Heating Maximum Air Flow Fraction
    ,                         !- Design Specification Zone Air Distribution Object Name
    No,                       !- Account for Dedicated Outdoor Air System
    NeutralSupplyAir,         !- Dedicated Outdoor Air System Control Strategy
    autosize,                 !- Dedicated Outdoor Air Low Setpoint Temperature for Design
    autosize,                 !- Dedicated Outdoor Air High Setpoint Temperature for Design
    Sensible Load Only No Latent Load,    !- Zone Load Sizing Method
    HumidityRatioDifference,    !- Zone Latent Cooling Design Supply Air Humidity Ratio Input Method
    ,                         !- Zone Dehumidification Design Supply Air Humidity Ratio
    0.005,                    !- Zone Cooling Design Supply Air Humidity Ratio Difference
    HumidityRatioDifference,    !- Zone Latent Heating Design Supply Air Humidity Ratio Input Method
    ,                         !- Zone Humidification Design Supply Air Humidity Ratio
    0.005,                    !- Zone Humidification Design Supply Air Humidity Ratio Difference
    ,                         !- Zone Humidistat Dehumidification Set Point Schedule Name
    ,                         !- Zone Humidistat Humidification Set Point Schedule Name
    Coincident,               !- Type of Space Sum to Use
    None,                     !- Heating Coil Sizing Method
    1;                        !- Maximum Heating Capacity To Cooling Load Sizing Ratio

SIZING:ZONE,
    1F_Area_A,                !- Zone or ZoneList Name
    SupplyAirTemperature,     !- Zone Cooling Design Supply Air Temperature Input Method
    12,                       !- Zone Cooling Design Supply Air Temperature
    ,                         !- Zone Cooling Design Supply Air Temperature Difference
    SupplyAirTemperature,     !- Zone Heating Design Supply Air Temperature Input Method
    50,                       !- Zone Heating Design Supply Air Temperature
    ,                         !- Zone Heating Design Supply Air Temperature Difference
    0.0085,                   !- Zone Cooling Design Supply Air Humidity Ratio
    0.008,                    !- Zone Heating Design Supply Air Humidity Ratio
    ,                         !- Design Specification Outdoor Air Object Name
    ,                         !- Zone Heating Sizing Factor
    ,                         !- Zone Cooling Sizing Factor
    DesignDay,                !- Cooling Design Air Flow Method
    0,                        !- Cooling Design Air Flow Rate
    0.000762,                 !- Cooling Minimum Air Flow per Zone Floor Area
    0,                        !- Cooling Minimum Air Flow
    0.2,                      !- Cooling Minimum Air Flow Fraction
    DesignDay,                !- Heating Design Air Flow Method
    0,                        !- Heating Design Air Flow Rate
    0.002032,                 !- Heating Maximum Air Flow per Zone Floor Area
    0.1415762,                !- Heating Maximum Air Flow
    0.3,                      !- Heating Maximum Air Flow Fraction
    ,                         !- Design Specification Zone Air Distribution Object Name
    No,                       !- Account for Dedicated Outdoor Air System
    NeutralSupplyAir,         !- Dedicated Outdoor Air System Control Strategy
    autosize,                 !- Dedicated Outdoor Air Low Setpoint Temperature for Design
    autosize,                 !- Dedicated Outdoor Air High Setpoint Temperature for Design
    Sensible Load Only No Latent Load,    !- Zone Load Sizing Method
    HumidityRatioDifference,    !- Zone Latent Cooling Design Supply Air Humidity Ratio Input Method
    ,                         !- Zone Dehumidification Design Supply Air Humidity Ratio
    0.005,                    !- Zone Cooling Design Supply Air Humidity Ratio Difference
    HumidityRatioDifference,    !- Zone Latent Heating Design Supply Air Humidity Ratio Input Method
    ,                         !- Zone Humidification Design Supply Air Humidity Ratio
    0.005,                    !- Zone Humidification Design Supply Air Humidity Ratio Difference
    ,                         !- Zone Humidistat Dehumidification Set Point Schedule Name
    ,                         !- Zone Humidistat Humidification Set Point Schedule Name
    Coincident,               !- Type of Space Sum to Use
    None,                     !- Heating Coil Sizing Method
    1;                        !- Maximum Heating Capacity To Cooling Load Sizing Ratio

SIZING:ZONE,
    1F_Area_B,                !- Zone or ZoneList Name
    SupplyAirTemperature,     !- Zone Cooling Design Supply Air Temperature Input Method
    12,                       !- Zone Cooling Design Supply Air Temperature
    ,                         !- Zone Cooling Design Supply Air Temperature Difference
    SupplyAirTemperature,     !- Zone Heating Design Supply Air Temperature Input Method
    50,                       !- Zone Heating Design Supply Air Temperature
    ,                         !- Zone Heating Design Supply Air Temperature Difference
    0.0085,                   !- Zone Cooling Design Supply Air Humidity Ratio
    0.008,                    !- Zone Heating Design Supply Air Humidity Ratio
    ,                         !- Design Specification Outdoor Air Object Name
    ,                         !- Zone Heating Sizing Factor
    ,                         !- Zone Cooling Sizing Factor
    DesignDay,                !- Cooling Design Air Flow Method
    0,                        !- Cooling Design Air Flow Rate
    0.000762,                 !- Cooling Minimum Air Flow per Zone Floor Area
    0,                        !- Cooling Minimum Air Flow
    0.2,                      !- Cooling Minimum Air Flow Fraction
    DesignDay,                !- Heating Design Air Flow Method
    0,                        !- Heating Design Air Flow Rate
    0.002032,                 !- Heating Maximum Air Flow per Zone Floor Area
    0.1415762,                !- Heating Maximum Air Flow
    0.3,                      !- Heating Maximum Air Flow Fraction
    ,                         !- Design Specification Zone Air Distribution Object Name
    No,                       !- Account for Dedicated Outdoor Air System
    NeutralSupplyAir,         !- Dedicated Outdoor Air System Control Strategy
    autosize,                 !- Dedicated Outdoor Air Low Setpoint Temperature for Design
    autosize,                 !- Dedicated Outdoor Air High Setpoint Temperature for Design
    Sensible Load Only No Latent Load,    !- Zone Load Sizing Method
    HumidityRatioDifference,    !- Zone Latent Cooling Design Supply Air Humidity Ratio Input Method
    ,                         !- Zone Dehumidification Design Supply Air Humidity Ratio
    0.005,                    !- Zone Cooling Design Supply Air Humidity Ratio Difference
    HumidityRatioDifference,    !- Zone Latent Heating Design Supply Air Humidity Ratio Input Method
    ,                         !- Zone Humidification Design Supply Air Humidity Ratio
    0.005,                    !- Zone Humidification Design Supply Air Humidity Ratio Difference
    ,                         !- Zone Humidistat Dehumidification Set Point Schedule Name
    ,                         !- Zone Humidistat Humidification Set Point Schedule Name
    Coincident,               !- Type of Space Sum to Use
    None,                     !- Heating Coil Sizing Method
    1;                        !- Maximum Heating Capacity To Cooling Load Sizing Ratio

SIZING:ZONE,
    1F_Area_C,                !- Zone or ZoneList Name
    SupplyAirTemperature,     !- Zone Cooling Design Supply Air Temperature Input Method
    12,                       !- Zone Cooling Design Supply Air Temperature
    ,                         !- Zone Cooling Design Supply Air Temperature Difference
    SupplyAirTemperature,     !- Zone Heating Design Supply Air Temperature Input Method
    50,                       !- Zone Heating Design Supply Air Temperature
    ,                         !- Zone Heating Design Supply Air Temperature Difference
    0.0085,                   !- Zone Cooling Design Supply Air Humidity Ratio
    0.008,                    !- Zone Heating Design Supply Air Humidity Ratio
    ,                         !- Design Specification Outdoor Air Object Name
    ,                         !- Zone Heating Sizing Factor
    ,                         !- Zone Cooling Sizing Factor
    DesignDay,                !- Cooling Design Air Flow Method
    0,                        !- Cooling Design Air Flow Rate
    0.000762,                 !- Cooling Minimum Air Flow per Zone Floor Area
    0,                        !- Cooling Minimum Air Flow
    0.2,                      !- Cooling Minimum Air Flow Fraction
    DesignDay,                !- Heating Design Air Flow Method
    0,                        !- Heating Design Air Flow Rate
    0.002032,                 !- Heating Maximum Air Flow per Zone Floor Area
    0.1415762,                !- Heating Maximum Air Flow
    0.3,                      !- Heating Maximum Air Flow Fraction
    ,                         !- Design Specification Zone Air Distribution Object Name
    No,                       !- Account for Dedicated Outdoor Air System
    NeutralSupplyAir,         !- Dedicated Outdoor Air System Control Strategy
    autosize,                 !- Dedicated Outdoor Air Low Setpoint Temperature for Design
    autosize,                 !- Dedicated Outdoor Air High Setpoint Temperature for Design
    Sensible Load Only No Latent Load,    !- Zone Load Sizing Method
    HumidityRatioDifference,    !- Zone Latent Cooling Design Supply Air Humidity Ratio Input Method
    ,                         !- Zone Dehumidification Design Supply Air Humidity Ratio
    0.005,                    !- Zone Cooling Design Supply Air Humidity Ratio Difference
    HumidityRatioDifference,    !- Zone Latent Heating Design Supply Air Humidity Ratio Input Method
    ,                         !- Zone Humidification Design Supply Air Humidity Ratio
    0.005,                    !- Zone Humidification Design Supply Air Humidity Ratio Difference
    ,                         !- Zone Humidistat Dehumidification Set Point Schedule Name
    ,                         !- Zone Humidistat Humidification Set Point Schedule Name
    Coincident,               !- Type of Space Sum to Use
    None,                     !- Heating Coil Sizing Method
    1;                        !- Maximum Heating Capacity To Cooling Load Sizing Ratio

SIZING:ZONE,
    1F_Area_D,                !- Zone or ZoneList Name
    SupplyAirTemperature,     !- Zone Cooling Design Supply Air Temperature Input Method
    12,                       !- Zone Cooling Design Supply Air Temperature
    ,                         !- Zone Cooling Design Supply Air Temperature Difference
    SupplyAirTemperature,     !- Zone Heating Design Supply Air Temperature Input Method
    50,                       !- Zone Heating Design Supply Air Temperature
    ,                         !- Zone Heating Design Supply Air Temperature Difference
    0.0085,                   !- Zone Cooling Design Supply Air Humidity Ratio
    0.008,                    !- Zone Heating Design Supply Air Humidity Ratio
    ,                         !- Design Specification Outdoor Air Object Name
    ,                         !- Zone Heating Sizing Factor
    ,                         !- Zone Cooling Sizing Factor
    DesignDay,                !- Cooling Design Air Flow Method
    0,                        !- Cooling Design Air Flow Rate
    0.000762,                 !- Cooling Minimum Air Flow per Zone Floor Area
    0,                        !- Cooling Minimum Air Flow
    0.2,                      !- Cooling Minimum Air Flow Fraction
    DesignDay,                !- Heating Design Air Flow Method
    0,                        !- Heating Design Air Flow Rate
    0.002032,                 !- Heating Maximum Air Flow per Zone Floor Area
    0.1415762,                !- Heating Maximum Air Flow
    0.3,                      !- Heating Maximum Air Flow Fraction
    ,                         !- Design Specification Zone Air Distribution Object Name
    No,                       !- Account for Dedicated Outdoor Air System
    NeutralSupplyAir,         !- Dedicated Outdoor Air System Control Strategy
    autosize,                 !- Dedicated Outdoor Air Low Setpoint Temperature for Design
    autosize,                 !- Dedicated Outdoor Air High Setpoint Temperature for Design
    Sensible Load Only No Latent Load,    !- Zone Load Sizing Method
    HumidityRatioDifference,    !- Zone Latent Cooling Design Supply Air Humidity Ratio Input Method
    ,                         !- Zone Dehumidification Design Supply Air Humidity Ratio
    0.005,                    !- Zone Cooling Design Supply Air Humidity Ratio Difference
    HumidityRatioDifference,    !- Zone Latent Heating Design Supply Air Humidity Ratio Input Method
    ,                         !- Zone Humidification Design Supply Air Humidity Ratio
    0.005,                    !- Zone Humidification Design Supply Air Humidity Ratio Difference
    ,                         !- Zone Humidistat Dehumidification Set Point Schedule Name
    ,                         !- Zone Humidistat Humidification Set Point Schedule Name
    Coincident,               !- Type of Space Sum to Use
    None,                     !- Heating Coil Sizing Method
    1;                        !- Maximum Heating Capacity To Cooling Load Sizing Ratio

SIZING:ZONE,
    2F_Area_A,                !- Zone or ZoneList Name
    SupplyAirTemperature,     !- Zone Cooling Design Supply Air Temperature Input Method
    12,                       !- Zone Cooling Design Supply Air Temperature
    ,                         !- Zone Cooling Design Supply Air Temperature Difference
    SupplyAirTemperature,     !- Zone Heating Design Supply Air Temperature Input Method
    50,                       !- Zone Heating Design Supply Air Temperature
    ,                         !- Zone Heating Design Supply Air Temperature Difference
    0.0085,                   !- Zone Cooling Design Supply Air Humidity Ratio
    0.008,                    !- Zone Heating Design Supply Air Humidity Ratio
    ,                         !- Design Specification Outdoor Air Object Name
    ,                         !- Zone Heating Sizing Factor
    ,                         !- Zone Cooling Sizing Factor
    DesignDay,                !- Cooling Design Air Flow Method
    0,                        !- Cooling Design Air Flow Rate
    0.000762,                 !- Cooling Minimum Air Flow per Zone Floor Area
    0,                        !- Cooling Minimum Air Flow
    0.2,                      !- Cooling Minimum Air Flow Fraction
    DesignDay,                !- Heating Design Air Flow Method
    0,                        !- Heating Design Air Flow Rate
    0.002032,                 !- Heating Maximum Air Flow per Zone Floor Area
    0.1415762,                !- Heating Maximum Air Flow
    0.3,                      !- Heating Maximum Air Flow Fraction
    ,                         !- Design Specification Zone Air Distribution Object Name
    No,                       !- Account for Dedicated Outdoor Air System
    NeutralSupplyAir,         !- Dedicated Outdoor Air System Control Strategy
    autosize,                 !- Dedicated Outdoor Air Low Setpoint Temperature for Design
    autosize,                 !- Dedicated Outdoor Air High Setpoint Temperature for Design
    Sensible Load Only No Latent Load,    !- Zone Load Sizing Method
    HumidityRatioDifference,    !- Zone Latent Cooling Design Supply Air Humidity Ratio Input Method
    ,                         !- Zone Dehumidification Design Supply Air Humidity Ratio
    0.005,                    !- Zone Cooling Design Supply Air Humidity Ratio Difference
    HumidityRatioDifference,    !- Zone Latent Heating Design Supply Air Humidity Ratio Input Method
    ,                         !- Zone Humidification Design Supply Air Humidity Ratio
    0.005,                    !- Zone Humidification Design Supply Air Humidity Ratio Difference
    ,                         !- Zone Humidistat Dehumidification Set Point Schedule Name
    ,                         !- Zone Humidistat Humidification Set Point Schedule Name
    Coincident,               !- Type of Space Sum to Use
    None,                     !- Heating Coil Sizing Method
    1;                        !- Maximum Heating Capacity To Cooling Load Sizing Ratio

SIZING:ZONE,
    2F_Area_B,                !- Zone or ZoneList Name
    SupplyAirTemperature,     !- Zone Cooling Design Supply Air Temperature Input Method
    12,                       !- Zone Cooling Design Supply Air Temperature
    ,                         !- Zone Cooling Design Supply Air Temperature Difference
    SupplyAirTemperature,     !- Zone Heating Design Supply Air Temperature Input Method
    50,                       !- Zone Heating Design Supply Air Temperature
    ,                         !- Zone Heating Design Supply Air Temperature Difference
    0.0085,                   !- Zone Cooling Design Supply Air Humidity Ratio
    0.008,                    !- Zone Heating Design Supply Air Humidity Ratio
    ,                         !- Design Specification Outdoor Air Object Name
    ,                         !- Zone Heating Sizing Factor
    ,                         !- Zone Cooling Sizing Factor
    DesignDay,                !- Cooling Design Air Flow Method
    0,                        !- Cooling Design Air Flow Rate
    0.000762,                 !- Cooling Minimum Air Flow per Zone Floor Area
    0,                        !- Cooling Minimum Air Flow
    0.2,                      !- Cooling Minimum Air Flow Fraction
    DesignDay,                !- Heating Design Air Flow Method
    0,                        !- Heating Design Air Flow Rate
    0.002032,                 !- Heating Maximum Air Flow per Zone Floor Area
    0.1415762,                !- Heating Maximum Air Flow
    0.3,                      !- Heating Maximum Air Flow Fraction
    ,                         !- Design Specification Zone Air Distribution Object Name
    No,                       !- Account for Dedicated Outdoor Air System
    NeutralSupplyAir,         !- Dedicated Outdoor Air System Control Strategy
    autosize,                 !- Dedicated Outdoor Air Low Setpoint Temperature for Design
    autosize,                 !- Dedicated Outdoor Air High Setpoint Temperature for Design
    Sensible Load Only No Latent Load,    !- Zone Load Sizing Method
    HumidityRatioDifference,    !- Zone Latent Cooling Design Supply Air Humidity Ratio Input Method
    ,                         !- Zone Dehumidification Design Supply Air Humidity Ratio
    0.005,                    !- Zone Cooling Design Supply Air Humidity Ratio Difference
    HumidityRatioDifference,    !- Zone Latent Heating Design Supply Air Humidity Ratio Input Method
    ,                         !- Zone Humidification Design Supply Air Humidity Ratio
    0.005,                    !- Zone Humidification Design Supply Air Humidity Ratio Difference
    ,                         !- Zone Humidistat Dehumidification Set Point Schedule Name
    ,                         !- Zone Humidistat Humidification Set Point Schedule Name
    Coincident,               !- Type of Space Sum to Use
    None,                     !- Heating Coil Sizing Method
    1;                        !- Maximum Heating Capacity To Cooling Load Sizing Ratio

!- Temperature Difference Between Cutout And Setpoint

!- Temperature Difference Between Cutout And Setpoint

!- Temperature Difference Between Cutout And Setpoint

!- Temperature Difference Between Cutout And Setpoint

!- Temperature Difference Between Cutout And Setpoint

!- Temperature Difference Between Cutout And Setpoint

!- Temperature Difference Between Cutout And Setpoint

!- Temperature Difference Between Cutout And Setpoint

!- Temperature Difference Between Cutout And Setpoint

!- Cooling Setpoint Temperature Schedule Name

!- Cooling Setpoint Temperature Schedule Name

!- Cooling Setpoint Temperature Schedule Name

!- Cooling Setpoint Temperature Schedule Name

!- Cooling Setpoint Temperature Schedule Name

!- Cooling Setpoint Temperature Schedule Name

!- Cooling Setpoint Temperature Schedule Name

!- Cooling Setpoint Temperature Schedule Name

!- Cooling Setpoint Temperature Schedule Name

!- Cooling Fuel Type

!- Cooling Fuel Type

!- Cooling Fuel Type

!- Cooling Fuel Type

!- Cooling Fuel Type

!- Cooling Fuel Type

!- Cooling Fuel Type

!- Cooling Fuel Type

!- Cooling Fuel Type

!- Zone Air Node Name

!- Zone Air Node Name

!- Zone Air Node Name

!- Zone Air Node Name

!- Zone Air Node Name

!- Zone Air Node Name

!- Zone Air Node Name

!- Zone Air Node Name

!- Zone Air Node Name

OUTPUT:TABLE:SUMMARYREPORTS,
    AllSummary;               !- Report 1 Name

OUTPUTCONTROL:TABLE:STYLE,
    Comma,                    !- Column Separator
    None,                     !- Unit Conversion
    Yes;                      !- Format Numeric Values

OUTPUT:VARIABLE,
    *,                        !- Key Value
    Zone Mean Air Temperature,    !- Variable Name
    Hourly;                   !- Reporting Frequency

OUTPUT:VARIABLE,
    *,                        !- Key Value
    Zone Ideal Loads Supply Air Sensible Heating Energy,    !- Variable Name
    Monthly;                  !- Reporting Frequency

OUTPUT:VARIABLE,
    *,                        !- Key Value
    Zone Ideal Loads Supply Air Sensible Cooling Energy,    !- Variable Name
    Monthly;                  !- Reporting Frequency

OUTPUT:METER,
    Electricity:Facility,     !- Key Name
    Hourly;                   !- Reporting Frequency

OUTPUT:METER,
    Electricity:Facility,     !- Key Name
    Monthly;                  !- Reporting Frequency

OUTPUT:METER,
    InteriorLights:Electricity,    !- Key Name
    Monthly;                  !- Reporting Frequency

OUTPUT:METER,
    InteriorEquipment:Electricity,    !- Key Name
    Monthly;                  !- Reporting Frequency

OUTPUT:METER,
    DistrictHeatingWater:Facility,    !- Key Name
    Monthly;                  !- Reporting Frequency

OUTPUT:METER,
    DistrictCooling:Facility,    !- Key Name
    Monthly;                  !- Reporting Frequency

!- === DSM native timestep outputs (IdealLoads + COP proxy) ===
OUTPUT:METER,
    Electricity:Facility,     !- Key Name
    Timestep;                 !- Reporting Frequency

OUTPUT:METER,
    DistrictHeatingWater:Facility,    !- Key Name
    Timestep;                 !- Reporting Frequency

OUTPUT:METER,
    DistrictCooling:Facility,    !- Key Name
    Timestep;                 !- Reporting Frequency

OUTPUT:METER,
    Electricity:Facility,     !- Key Name
    Hourly;                   !- Reporting Frequency

OUTPUT:METER,
    DistrictHeatingWater:Facility,    !- Key Name
    Hourly;                   !- Reporting Frequency

OUTPUT:METER,
    DistrictCooling:Facility,    !- Key Name
    Hourly;                   !- Reporting Frequency

OUTPUT:VARIABLE,
    *,                        !- Key Value
    Zone Mean Air Temperature,    !- Variable Name
    Timestep;                 !- Reporting Frequency

OUTPUT:VARIABLE,
    *,                        !- Key Value
    Zone Ideal Loads Supply Air Sensible Heating Energy,    !- Variable Name
    Timestep;                 !- Reporting Frequency

OUTPUT:VARIABLE,
    *,                        !- Key Value
    Zone Ideal Loads Supply Air Sensible Cooling Energy,    !- Variable Name
    Timestep;                 !- Reporting Frequency

SCHEDULE:COMPACT,
    SCH_SysAvail,                !- Name
    Fraction,              !- Schedule Type Limits Name
    Through: 12/31,                    !- Field 1
    For: AllDays,                    !- Field 2
    Until: 24:00,                    !- Field 3
    1.0;                    !- Field 4

SCHEDULE:COMPACT,
    SCH_HeatAvail,                !- Name
    Fraction,              !- Schedule Type Limits Name
    Through: 12/31,                    !- Field 1
    For: AllDays,                    !- Field 2
    Until: 24:00,                    !- Field 3
    1.0;                    !- Field 4

SCHEDULE:COMPACT,
    SCH_CoolAvail,                !- Name
    Fraction,              !- Schedule Type Limits Name
    Through: 12/31,                    !- Field 1
    For: Weekends Holidays,                    !- Field 2
    Until: 24:00,                    !- Field 3
    0.0,                    !- Field 4
    For: Thursday,                    !- Field 5
    Until: 05:30,                    !- Field 6
    0.0,                    !- Field 7
    Until: 07:30,                    !- Field 8
    0.25,                    !- Field 9
    Until: 13:30,                    !- Field 10
    1.0,                    !- Field 11
    Until: 18:00,                    !- Field 12
    0.15,                    !- Field 13
    Until: 24:00,                    !- Field 14
    0.0,                    !- Field 15
    For: Monday Tuesday Wednesday Friday,                    !- Field 16
    Until: 05:30,                    !- Field 17
    0.0,                    !- Field 18
    Until: 07:30,                    !- Field 19
    0.25,                    !- Field 20
    Until: 14:45,                    !- Field 21
    1.0,                    !- Field 22
    Until: 18:00,                    !- Field 23
    0.15,                    !- Field 24
    Until: 24:00,                    !- Field 25
    0.0,                    !- Field 26
    For: AllOtherDays,                    !- Field 27
    Until: 24:00,                    !- Field 28
    0.0;                    !- Field 29

SCHEDULE:COMPACT,
    SCH_OA,                !- Name
    Fraction,              !- Schedule Type Limits Name
    Through: 12/31,                    !- Field 1
    For: Weekends Holidays,                    !- Field 2
    Until: 24:00,                    !- Field 3
    0.0,                    !- Field 4
    For: Thursday,                    !- Field 5
    Until: 05:30,                    !- Field 6
    0.0,                    !- Field 7
    Until: 07:30,                    !- Field 8
    0.25,                    !- Field 9
    Until: 13:30,                    !- Field 10
    1.0,                    !- Field 11
    Until: 18:00,                    !- Field 12
    0.15,                    !- Field 13
    Until: 24:00,                    !- Field 14
    0.0,                    !- Field 15
    For: Monday Tuesday Wednesday Friday,                    !- Field 16
    Until: 05:30,                    !- Field 17
    0.0,                    !- Field 18
    Until: 07:30,                    !- Field 19
    0.25,                    !- Field 20
    Until: 14:45,                    !- Field 21
    1.0,                    !- Field 22
    Until: 18:00,                    !- Field 23
    0.15,                    !- Field 24
    Until: 24:00,                    !- Field 25
    0.0,                    !- Field 26
    For: AllOtherDays,                    !- Field 27
    Until: 24:00,                    !- Field 28
    0.0;                    !- Field 29

SCHEDULE:COMPACT,
    SCH_FanProxy,                !- Name
    Fraction,              !- Schedule Type Limits Name
    Through: 12/31,                    !- Field 1
    For: Weekends Holidays,                    !- Field 2
    Until: 24:00,                    !- Field 3
    0.0,                    !- Field 4
    For: Thursday,                    !- Field 5
    Until: 05:30,                    !- Field 6
    0.0,                    !- Field 7
    Until: 07:30,                    !- Field 8
    0.25,                    !- Field 9
    Until: 13:30,                    !- Field 10
    1.0,                    !- Field 11
    Until: 18:00,                    !- Field 12
    0.15,                    !- Field 13
    Until: 24:00,                    !- Field 14
    0.0,                    !- Field 15
    For: Monday Tuesday Wednesday Friday,                    !- Field 16
    Until: 05:30,                    !- Field 17
    0.0,                    !- Field 18
    Until: 07:30,                    !- Field 19
    0.25,                    !- Field 20
    Until: 14:45,                    !- Field 21
    1.0,                    !- Field 22
    Until: 18:00,                    !- Field 23
    0.15,                    !- Field 24
    Until: 24:00,                    !- Field 25
    0.0,                    !- Field 26
    For: AllOtherDays,                    !- Field 27
    Until: 24:00,                    !- Field 28
    0.0;                    !- Field 29

SCHEDULE:COMPACT,
    SCH_Occ,                !- Name
    Fraction,              !- Schedule Type Limits Name
    Through: 12/31,                    !- Field 1
    For: Weekends Holidays,                    !- Field 2
    Until: 24:00,                    !- Field 3
    0.05,                    !- Field 4
    For: Thursday,                    !- Field 5
    Until: 05:30,                    !- Field 6
    0.05,                    !- Field 7
    Until: 07:30,                    !- Field 8
    0.2375,                    !- Field 9
    Until: 13:30,                    !- Field 10
    0.95,                    !- Field 11
    Until: 18:00,                    !- Field 12
    0.1425,                    !- Field 13
    Until: 24:00,                    !- Field 14
    0.05,                    !- Field 15
    For: Monday Tuesday Wednesday Friday,                    !- Field 16
    Until: 05:30,                    !- Field 17
    0.05,                    !- Field 18
    Until: 07:30,                    !- Field 19
    0.2375,                    !- Field 20
    Until: 14:45,                    !- Field 21
    0.95,                    !- Field 22
    Until: 18:00,                    !- Field 23
    0.1425,                    !- Field 24
    Until: 24:00,                    !- Field 25
    0.05,                    !- Field 26
    For: AllOtherDays,                    !- Field 27
    Until: 24:00,                    !- Field 28
    0.05;                    !- Field 29
! 
! === PROVISIONAL W2A HVACTemplate plant (ASSUMED curves; not GLHE; strip capacity=0) ===
! HVACTemplate:Thermostat,
!     Lakeside_AllZones_Tstat, !- Name
!     SCH_HtgSP,               !- Heating Setpoint Schedule Name
!     ,                        !- Constant Heating Setpoint
!     SCH_ClgSP,               !- Cooling Setpoint Schedule Name
!     ;                        !- Constant Cooling Setpoint
! 
! HVACTemplate:Plant:MixedWaterLoop,
!     Only Water Loop,         !- Name
!     ,                        !- Pump Schedule Name
!     Intermittent,            !- Pump Control Type
!     Default,                 !- Operation Scheme Type
!     ,                        !- Equipment Operation Schemes Name
!     ,                        !- High Temperature Setpoint Schedule Name
!     34,                      !- High Temperature Design Setpoint {C}
!     ,                        !- Low Temperature Setpoint Schedule Name
!     20,                      !- Low Temperature Design Setpoint {C}
!     ConstantFlow,            !- Water Pump Configuration
!     179352;
! 
! HVACTemplate:Plant:Boiler,
!     Main Boiler,             !- Name
!     HotWaterBoiler,          !- Boiler Type
!     autosize,                !- Capacity {W}
!     0.8,                     !- Efficiency
!     NaturalGas,              !- Fuel Type
!     1,                       !- Priority
!     ;
! 
! HVACTemplate:Plant:Tower,
!     Main Tower,              !- Name
!     SingleSpeed,             !- Tower Type
!     autosize,                !- High Speed Nominal Capacity {W}
!     autosize,                !- High Speed Fan Power {W}
!     autosize,                !- Low Speed Nominal Capacity {W}
!     autosize,                !- Low Speed Fan Power {W}
!     autosize,                !- Free Convection Capacity {W}
!     1,                       !- Priority
!     ;
! 
! HVACTemplate:Zone:WaterToAirHeatPump,
!     1F_Library_IMC,                !- Zone Name
!     Lakeside_AllZones_Tstat,               !- Template Thermostat Name
!     autosize,                !- Cooling Supply Air Flow Rate {m3/s}
!     autosize,                !- Heating Supply Air Flow Rate {m3/s}
!     ,                        !- No Load Supply Air Flow Rate {m3/s}
!     ,                        !- Zone Heating Sizing Factor
!     ,                        !- Zone Cooling Sizing Factor
!     Flow/Person,             !- Outdoor Air Method
!     0.00944,                 !- Outdoor Air Flow Rate per Person {m3/s}
!     ,                        !- Outdoor Air Flow Rate per Zone Floor Area {m3/s-m2}
!     ,                        !- Outdoor Air Flow Rate per Zone {m3/s}
!     ,                        !- System Availability Schedule Name
!     ,                        !- Supply Fan Operating Mode Schedule Name
!     DrawThrough,             !- Supply Fan Placement
!     0.7,                     !- Supply Fan Total Efficiency
!     75,                      !- Supply Fan Delta Pressure {Pa}
!     0.9,                     !- Supply Fan Motor Efficiency
!     Coil:Cooling:WaterToAirHeatPump:EquationFit,  !- Cooling Coil Type
!     autosize,                !- Cooling Coil Gross Rated Total Capacity {W}
!     autosize,                !- Cooling Coil Gross Rated Sensible Heat Ratio
!     3.5,                     !- Cooling Coil Gross Rated COP {W/W}
!     Coil:Heating:WaterToAirHeatPump:EquationFit,  !- Heat Pump Heating Coil Type
!     autosize,                !- Heat Pump Heating Coil Gross Rated Capacity {W}
!     4.2,                     !- Heat Pump Heating Coil Gross Rated COP {W/W}
!     ,                        !- Supplemental Heating Coil Availability Schedule Name
!     0,                !- Supplemental Heating Coil Capacity {W}
!     2.5,                     !- Maximum Cycling Rate {cycles/hr}
!     60,                      !- Latent Capacity Time Constant {s}
!     60,                      !- Heat Pump Fan Delay Time {s}
!     ,                        !- Dedicated Outdoor Air System Name
!     Electric,                !- Supplemental Heating Coil Type
!     SupplyAirTemperature,    !- Zone Cooling Design Supply Air Temperature Input Method
!     14.0,                    !- Zone Cooling Design Supply Air Temperature {C}
!     ,                        !- Zone Cooling Design Supply Air Temperature Difference {deltaC}
!     SupplyAirTemperature,    !- Zone Heating Design Supply Air Temperature Input Method
!     50.0,                    !- Zone Heating Design Supply Air Temperature {C}
!     ,                        !- Zone Heating Design Supply Air Temperature Difference {deltaC}
!     ,                        !- Heat Pump Coil Water Flow Mode
!     ,                        !- Design Specification Outdoor Air Object Name
!     ,                        !- Design Specification Zone Air Distribution Object Name
!     ,                        !- Baseboard Heating Type
!     ,                        !- Baseboard Heating Availability Schedule Name
!     ;
! 
! HVACTemplate:Zone:WaterToAirHeatPump,
!     1F_Cafe_Kitchen,                !- Zone Name
!     Lakeside_AllZones_Tstat,               !- Template Thermostat Name
!     autosize,                !- Cooling Supply Air Flow Rate {m3/s}
!     autosize,                !- Heating Supply Air Flow Rate {m3/s}
!     ,                        !- No Load Supply Air Flow Rate {m3/s}
!     ,                        !- Zone Heating Sizing Factor
!     ,                        !- Zone Cooling Sizing Factor
!     Flow/Person,             !- Outdoor Air Method
!     0.00944,                 !- Outdoor Air Flow Rate per Person {m3/s}
!     ,                        !- Outdoor Air Flow Rate per Zone Floor Area {m3/s-m2}
!     ,                        !- Outdoor Air Flow Rate per Zone {m3/s}
!     ,                        !- System Availability Schedule Name
!     ,                        !- Supply Fan Operating Mode Schedule Name
!     DrawThrough,             !- Supply Fan Placement
!     0.7,                     !- Supply Fan Total Efficiency
!     75,                      !- Supply Fan Delta Pressure {Pa}
!     0.9,                     !- Supply Fan Motor Efficiency
!     Coil:Cooling:WaterToAirHeatPump:EquationFit,  !- Cooling Coil Type
!     autosize,                !- Cooling Coil Gross Rated Total Capacity {W}
!     autosize,                !- Cooling Coil Gross Rated Sensible Heat Ratio
!     3.5,                     !- Cooling Coil Gross Rated COP {W/W}
!     Coil:Heating:WaterToAirHeatPump:EquationFit,  !- Heat Pump Heating Coil Type
!     autosize,                !- Heat Pump Heating Coil Gross Rated Capacity {W}
!     4.2,                     !- Heat Pump Heating Coil Gross Rated COP {W/W}
!     ,                        !- Supplemental Heating Coil Availability Schedule Name
!     0,                !- Supplemental Heating Coil Capacity {W}
!     2.5,                     !- Maximum Cycling Rate {cycles/hr}
!     60,                      !- Latent Capacity Time Constant {s}
!     60,                      !- Heat Pump Fan Delay Time {s}
!     ,                        !- Dedicated Outdoor Air System Name
!     Electric,                !- Supplemental Heating Coil Type
!     SupplyAirTemperature,    !- Zone Cooling Design Supply Air Temperature Input Method
!     14.0,                    !- Zone Cooling Design Supply Air Temperature {C}
!     ,                        !- Zone Cooling Design Supply Air Temperature Difference {deltaC}
!     SupplyAirTemperature,    !- Zone Heating Design Supply Air Temperature Input Method
!     50.0,                    !- Zone Heating Design Supply Air Temperature {C}
!     ,                        !- Zone Heating Design Supply Air Temperature Difference {deltaC}
!     ,                        !- Heat Pump Coil Water Flow Mode
!     ,                        !- Design Specification Outdoor Air Object Name
!     ,                        !- Design Specification Zone Air Distribution Object Name
!     ,                        !- Baseboard Heating Type
!     ,                        !- Baseboard Heating Availability Schedule Name
!     ;
! 
! HVACTemplate:Zone:WaterToAirHeatPump,
!     1F_Gym,                !- Zone Name
!     Lakeside_AllZones_Tstat,               !- Template Thermostat Name
!     autosize,                !- Cooling Supply Air Flow Rate {m3/s}
!     autosize,                !- Heating Supply Air Flow Rate {m3/s}
!     ,                        !- No Load Supply Air Flow Rate {m3/s}
!     ,                        !- Zone Heating Sizing Factor
!     ,                        !- Zone Cooling Sizing Factor
!     Flow/Person,             !- Outdoor Air Method
!     0.00944,                 !- Outdoor Air Flow Rate per Person {m3/s}
!     ,                        !- Outdoor Air Flow Rate per Zone Floor Area {m3/s-m2}
!     ,                        !- Outdoor Air Flow Rate per Zone {m3/s}
!     ,                        !- System Availability Schedule Name
!     ,                        !- Supply Fan Operating Mode Schedule Name
!     DrawThrough,             !- Supply Fan Placement
!     0.7,                     !- Supply Fan Total Efficiency
!     75,                      !- Supply Fan Delta Pressure {Pa}
!     0.9,                     !- Supply Fan Motor Efficiency
!     Coil:Cooling:WaterToAirHeatPump:EquationFit,  !- Cooling Coil Type
!     autosize,                !- Cooling Coil Gross Rated Total Capacity {W}
!     autosize,                !- Cooling Coil Gross Rated Sensible Heat Ratio
!     3.5,                     !- Cooling Coil Gross Rated COP {W/W}
!     Coil:Heating:WaterToAirHeatPump:EquationFit,  !- Heat Pump Heating Coil Type
!     autosize,                !- Heat Pump Heating Coil Gross Rated Capacity {W}
!     4.2,                     !- Heat Pump Heating Coil Gross Rated COP {W/W}
!     ,                        !- Supplemental Heating Coil Availability Schedule Name
!     0,                !- Supplemental Heating Coil Capacity {W}
!     2.5,                     !- Maximum Cycling Rate {cycles/hr}
!     60,                      !- Latent Capacity Time Constant {s}
!     60,                      !- Heat Pump Fan Delay Time {s}
!     ,                        !- Dedicated Outdoor Air System Name
!     Electric,                !- Supplemental Heating Coil Type
!     SupplyAirTemperature,    !- Zone Cooling Design Supply Air Temperature Input Method
!     14.0,                    !- Zone Cooling Design Supply Air Temperature {C}
!     ,                        !- Zone Cooling Design Supply Air Temperature Difference {deltaC}
!     SupplyAirTemperature,    !- Zone Heating Design Supply Air Temperature Input Method
!     50.0,                    !- Zone Heating Design Supply Air Temperature {C}
!     ,                        !- Zone Heating Design Supply Air Temperature Difference {deltaC}
!     ,                        !- Heat Pump Coil Water Flow Mode
!     ,                        !- Design Specification Outdoor Air Object Name
!     ,                        !- Design Specification Zone Air Distribution Object Name
!     ,                        !- Baseboard Heating Type
!     ,                        !- Baseboard Heating Availability Schedule Name
!     ;
! 
! HVACTemplate:Zone:WaterToAirHeatPump,
!     1F_Area_A,                !- Zone Name
!     Lakeside_AllZones_Tstat,               !- Template Thermostat Name
!     autosize,                !- Cooling Supply Air Flow Rate {m3/s}
!     autosize,                !- Heating Supply Air Flow Rate {m3/s}
!     ,                        !- No Load Supply Air Flow Rate {m3/s}
!     ,                        !- Zone Heating Sizing Factor
!     ,                        !- Zone Cooling Sizing Factor
!     Flow/Person,             !- Outdoor Air Method
!     0.00944,                 !- Outdoor Air Flow Rate per Person {m3/s}
!     ,                        !- Outdoor Air Flow Rate per Zone Floor Area {m3/s-m2}
!     ,                        !- Outdoor Air Flow Rate per Zone {m3/s}
!     ,                        !- System Availability Schedule Name
!     ,                        !- Supply Fan Operating Mode Schedule Name
!     DrawThrough,             !- Supply Fan Placement
!     0.7,                     !- Supply Fan Total Efficiency
!     75,                      !- Supply Fan Delta Pressure {Pa}
!     0.9,                     !- Supply Fan Motor Efficiency
!     Coil:Cooling:WaterToAirHeatPump:EquationFit,  !- Cooling Coil Type
!     autosize,                !- Cooling Coil Gross Rated Total Capacity {W}
!     autosize,                !- Cooling Coil Gross Rated Sensible Heat Ratio
!     3.5,                     !- Cooling Coil Gross Rated COP {W/W}
!     Coil:Heating:WaterToAirHeatPump:EquationFit,  !- Heat Pump Heating Coil Type
!     autosize,                !- Heat Pump Heating Coil Gross Rated Capacity {W}
!     4.2,                     !- Heat Pump Heating Coil Gross Rated COP {W/W}
!     ,                        !- Supplemental Heating Coil Availability Schedule Name
!     0,                !- Supplemental Heating Coil Capacity {W}
!     2.5,                     !- Maximum Cycling Rate {cycles/hr}
!     60,                      !- Latent Capacity Time Constant {s}
!     60,                      !- Heat Pump Fan Delay Time {s}
!     ,                        !- Dedicated Outdoor Air System Name
!     Electric,                !- Supplemental Heating Coil Type
!     SupplyAirTemperature,    !- Zone Cooling Design Supply Air Temperature Input Method
!     14.0,                    !- Zone Cooling Design Supply Air Temperature {C}
!     ,                        !- Zone Cooling Design Supply Air Temperature Difference {deltaC}
!     SupplyAirTemperature,    !- Zone Heating Design Supply Air Temperature Input Method
!     50.0,                    !- Zone Heating Design Supply Air Temperature {C}
!     ,                        !- Zone Heating Design Supply Air Temperature Difference {deltaC}
!     ,                        !- Heat Pump Coil Water Flow Mode
!     ,                        !- Design Specification Outdoor Air Object Name
!     ,                        !- Design Specification Zone Air Distribution Object Name
!     ,                        !- Baseboard Heating Type
!     ,                        !- Baseboard Heating Availability Schedule Name
!     ;
! 
! HVACTemplate:Zone:WaterToAirHeatPump,
!     1F_Area_B,                !- Zone Name
!     Lakeside_AllZones_Tstat,               !- Template Thermostat Name
!     autosize,                !- Cooling Supply Air Flow Rate {m3/s}
!     autosize,                !- Heating Supply Air Flow Rate {m3/s}
!     ,                        !- No Load Supply Air Flow Rate {m3/s}
!     ,                        !- Zone Heating Sizing Factor
!     ,                        !- Zone Cooling Sizing Factor
!     Flow/Person,             !- Outdoor Air Method
!     0.00944,                 !- Outdoor Air Flow Rate per Person {m3/s}
!     ,                        !- Outdoor Air Flow Rate per Zone Floor Area {m3/s-m2}
!     ,                        !- Outdoor Air Flow Rate per Zone {m3/s}
!     ,                        !- System Availability Schedule Name
!     ,                        !- Supply Fan Operating Mode Schedule Name
!     DrawThrough,             !- Supply Fan Placement
!     0.7,                     !- Supply Fan Total Efficiency
!     75,                      !- Supply Fan Delta Pressure {Pa}
!     0.9,                     !- Supply Fan Motor Efficiency
!     Coil:Cooling:WaterToAirHeatPump:EquationFit,  !- Cooling Coil Type
!     autosize,                !- Cooling Coil Gross Rated Total Capacity {W}
!     autosize,                !- Cooling Coil Gross Rated Sensible Heat Ratio
!     3.5,                     !- Cooling Coil Gross Rated COP {W/W}
!     Coil:Heating:WaterToAirHeatPump:EquationFit,  !- Heat Pump Heating Coil Type
!     autosize,                !- Heat Pump Heating Coil Gross Rated Capacity {W}
!     4.2,                     !- Heat Pump Heating Coil Gross Rated COP {W/W}
!     ,                        !- Supplemental Heating Coil Availability Schedule Name
!     0,                !- Supplemental Heating Coil Capacity {W}
!     2.5,                     !- Maximum Cycling Rate {cycles/hr}
!     60,                      !- Latent Capacity Time Constant {s}
!     60,                      !- Heat Pump Fan Delay Time {s}
!     ,                        !- Dedicated Outdoor Air System Name
!     Electric,                !- Supplemental Heating Coil Type
!     SupplyAirTemperature,    !- Zone Cooling Design Supply Air Temperature Input Method
!     14.0,                    !- Zone Cooling Design Supply Air Temperature {C}
!     ,                        !- Zone Cooling Design Supply Air Temperature Difference {deltaC}
!     SupplyAirTemperature,    !- Zone Heating Design Supply Air Temperature Input Method
!     50.0,                    !- Zone Heating Design Supply Air Temperature {C}
!     ,                        !- Zone Heating Design Supply Air Temperature Difference {deltaC}
!     ,                        !- Heat Pump Coil Water Flow Mode
!     ,                        !- Design Specification Outdoor Air Object Name
!     ,                        !- Design Specification Zone Air Distribution Object Name
!     ,                        !- Baseboard Heating Type
!     ,                        !- Baseboard Heating Availability Schedule Name
!     ;
! 
! HVACTemplate:Zone:WaterToAirHeatPump,
!     1F_Area_C,                !- Zone Name
!     Lakeside_AllZones_Tstat,               !- Template Thermostat Name
!     autosize,                !- Cooling Supply Air Flow Rate {m3/s}
!     autosize,                !- Heating Supply Air Flow Rate {m3/s}
!     ,                        !- No Load Supply Air Flow Rate {m3/s}
!     ,                        !- Zone Heating Sizing Factor
!     ,                        !- Zone Cooling Sizing Factor
!     Flow/Person,             !- Outdoor Air Method
!     0.00944,                 !- Outdoor Air Flow Rate per Person {m3/s}
!     ,                        !- Outdoor Air Flow Rate per Zone Floor Area {m3/s-m2}
!     ,                        !- Outdoor Air Flow Rate per Zone {m3/s}
!     ,                        !- System Availability Schedule Name
!     ,                        !- Supply Fan Operating Mode Schedule Name
!     DrawThrough,             !- Supply Fan Placement
!     0.7,                     !- Supply Fan Total Efficiency
!     75,                      !- Supply Fan Delta Pressure {Pa}
!     0.9,                     !- Supply Fan Motor Efficiency
!     Coil:Cooling:WaterToAirHeatPump:EquationFit,  !- Cooling Coil Type
!     autosize,                !- Cooling Coil Gross Rated Total Capacity {W}
!     autosize,                !- Cooling Coil Gross Rated Sensible Heat Ratio
!     3.5,                     !- Cooling Coil Gross Rated COP {W/W}
!     Coil:Heating:WaterToAirHeatPump:EquationFit,  !- Heat Pump Heating Coil Type
!     autosize,                !- Heat Pump Heating Coil Gross Rated Capacity {W}
!     4.2,                     !- Heat Pump Heating Coil Gross Rated COP {W/W}
!     ,                        !- Supplemental Heating Coil Availability Schedule Name
!     0,                !- Supplemental Heating Coil Capacity {W}
!     2.5,                     !- Maximum Cycling Rate {cycles/hr}
!     60,                      !- Latent Capacity Time Constant {s}
!     60,                      !- Heat Pump Fan Delay Time {s}
!     ,                        !- Dedicated Outdoor Air System Name
!     Electric,                !- Supplemental Heating Coil Type
!     SupplyAirTemperature,    !- Zone Cooling Design Supply Air Temperature Input Method
!     14.0,                    !- Zone Cooling Design Supply Air Temperature {C}
!     ,                        !- Zone Cooling Design Supply Air Temperature Difference {deltaC}
!     SupplyAirTemperature,    !- Zone Heating Design Supply Air Temperature Input Method
!     50.0,                    !- Zone Heating Design Supply Air Temperature {C}
!     ,                        !- Zone Heating Design Supply Air Temperature Difference {deltaC}
!     ,                        !- Heat Pump Coil Water Flow Mode
!     ,                        !- Design Specification Outdoor Air Object Name
!     ,                        !- Design Specification Zone Air Distribution Object Name
!     ,                        !- Baseboard Heating Type
!     ,                        !- Baseboard Heating Availability Schedule Name
!     ;
! 
! HVACTemplate:Zone:WaterToAirHeatPump,
!     1F_Area_D,                !- Zone Name
!     Lakeside_AllZones_Tstat,               !- Template Thermostat Name
!     autosize,                !- Cooling Supply Air Flow Rate {m3/s}
!     autosize,                !- Heating Supply Air Flow Rate {m3/s}
!     ,                        !- No Load Supply Air Flow Rate {m3/s}
!     ,                        !- Zone Heating Sizing Factor
!     ,                        !- Zone Cooling Sizing Factor
!     Flow/Person,             !- Outdoor Air Method
!     0.00944,                 !- Outdoor Air Flow Rate per Person {m3/s}
!     ,                        !- Outdoor Air Flow Rate per Zone Floor Area {m3/s-m2}
!     ,                        !- Outdoor Air Flow Rate per Zone {m3/s}
!     ,                        !- System Availability Schedule Name
!     ,                        !- Supply Fan Operating Mode Schedule Name
!     DrawThrough,             !- Supply Fan Placement
!     0.7,                     !- Supply Fan Total Efficiency
!     75,                      !- Supply Fan Delta Pressure {Pa}
!     0.9,                     !- Supply Fan Motor Efficiency
!     Coil:Cooling:WaterToAirHeatPump:EquationFit,  !- Cooling Coil Type
!     autosize,                !- Cooling Coil Gross Rated Total Capacity {W}
!     autosize,                !- Cooling Coil Gross Rated Sensible Heat Ratio
!     3.5,                     !- Cooling Coil Gross Rated COP {W/W}
!     Coil:Heating:WaterToAirHeatPump:EquationFit,  !- Heat Pump Heating Coil Type
!     autosize,                !- Heat Pump Heating Coil Gross Rated Capacity {W}
!     4.2,                     !- Heat Pump Heating Coil Gross Rated COP {W/W}
!     ,                        !- Supplemental Heating Coil Availability Schedule Name
!     0,                !- Supplemental Heating Coil Capacity {W}
!     2.5,                     !- Maximum Cycling Rate {cycles/hr}
!     60,                      !- Latent Capacity Time Constant {s}
!     60,                      !- Heat Pump Fan Delay Time {s}
!     ,                        !- Dedicated Outdoor Air System Name
!     Electric,                !- Supplemental Heating Coil Type
!     SupplyAirTemperature,    !- Zone Cooling Design Supply Air Temperature Input Method
!     14.0,                    !- Zone Cooling Design Supply Air Temperature {C}
!     ,                        !- Zone Cooling Design Supply Air Temperature Difference {deltaC}
!     SupplyAirTemperature,    !- Zone Heating Design Supply Air Temperature Input Method
!     50.0,                    !- Zone Heating Design Supply Air Temperature {C}
!     ,                        !- Zone Heating Design Supply Air Temperature Difference {deltaC}
!     ,                        !- Heat Pump Coil Water Flow Mode
!     ,                        !- Design Specification Outdoor Air Object Name
!     ,                        !- Design Specification Zone Air Distribution Object Name
!     ,                        !- Baseboard Heating Type
!     ,                        !- Baseboard Heating Availability Schedule Name
!     ;
! 
! HVACTemplate:Zone:WaterToAirHeatPump,
!     2F_Area_A,                !- Zone Name
!     Lakeside_AllZones_Tstat,               !- Template Thermostat Name
!     autosize,                !- Cooling Supply Air Flow Rate {m3/s}
!     autosize,                !- Heating Supply Air Flow Rate {m3/s}
!     ,                        !- No Load Supply Air Flow Rate {m3/s}
!     ,                        !- Zone Heating Sizing Factor
!     ,                        !- Zone Cooling Sizing Factor
!     Flow/Person,             !- Outdoor Air Method
!     0.00944,                 !- Outdoor Air Flow Rate per Person {m3/s}
!     ,                        !- Outdoor Air Flow Rate per Zone Floor Area {m3/s-m2}
!     ,                        !- Outdoor Air Flow Rate per Zone {m3/s}
!     ,                        !- System Availability Schedule Name
!     ,                        !- Supply Fan Operating Mode Schedule Name
!     DrawThrough,             !- Supply Fan Placement
!     0.7,                     !- Supply Fan Total Efficiency
!     75,                      !- Supply Fan Delta Pressure {Pa}
!     0.9,                     !- Supply Fan Motor Efficiency
!     Coil:Cooling:WaterToAirHeatPump:EquationFit,  !- Cooling Coil Type
!     autosize,                !- Cooling Coil Gross Rated Total Capacity {W}
!     autosize,                !- Cooling Coil Gross Rated Sensible Heat Ratio
!     3.5,                     !- Cooling Coil Gross Rated COP {W/W}
!     Coil:Heating:WaterToAirHeatPump:EquationFit,  !- Heat Pump Heating Coil Type
!     autosize,                !- Heat Pump Heating Coil Gross Rated Capacity {W}
!     4.2,                     !- Heat Pump Heating Coil Gross Rated COP {W/W}
!     ,                        !- Supplemental Heating Coil Availability Schedule Name
!     0,                !- Supplemental Heating Coil Capacity {W}
!     2.5,                     !- Maximum Cycling Rate {cycles/hr}
!     60,                      !- Latent Capacity Time Constant {s}
!     60,                      !- Heat Pump Fan Delay Time {s}
!     ,                        !- Dedicated Outdoor Air System Name
!     Electric,                !- Supplemental Heating Coil Type
!     SupplyAirTemperature,    !- Zone Cooling Design Supply Air Temperature Input Method
!     14.0,                    !- Zone Cooling Design Supply Air Temperature {C}
!     ,                        !- Zone Cooling Design Supply Air Temperature Difference {deltaC}
!     SupplyAirTemperature,    !- Zone Heating Design Supply Air Temperature Input Method
!     50.0,                    !- Zone Heating Design Supply Air Temperature {C}
!     ,                        !- Zone Heating Design Supply Air Temperature Difference {deltaC}
!     ,                        !- Heat Pump Coil Water Flow Mode
!     ,                        !- Design Specification Outdoor Air Object Name
!     ,                        !- Design Specification Zone Air Distribution Object Name
!     ,                        !- Baseboard Heating Type
!     ,                        !- Baseboard Heating Availability Schedule Name
!     ;
! 
! HVACTemplate:Zone:WaterToAirHeatPump,
!     2F_Area_B,                !- Zone Name
!     Lakeside_AllZones_Tstat,               !- Template Thermostat Name
!     autosize,                !- Cooling Supply Air Flow Rate {m3/s}
!     autosize,                !- Heating Supply Air Flow Rate {m3/s}
!     ,                        !- No Load Supply Air Flow Rate {m3/s}
!     ,                        !- Zone Heating Sizing Factor
!     ,                        !- Zone Cooling Sizing Factor
!     Flow/Person,             !- Outdoor Air Method
!     0.00944,                 !- Outdoor Air Flow Rate per Person {m3/s}
!     ,                        !- Outdoor Air Flow Rate per Zone Floor Area {m3/s-m2}
!     ,                        !- Outdoor Air Flow Rate per Zone {m3/s}
!     ,                        !- System Availability Schedule Name
!     ,                        !- Supply Fan Operating Mode Schedule Name
!     DrawThrough,             !- Supply Fan Placement
!     0.7,                     !- Supply Fan Total Efficiency
!     75,                      !- Supply Fan Delta Pressure {Pa}
!     0.9,                     !- Supply Fan Motor Efficiency
!     Coil:Cooling:WaterToAirHeatPump:EquationFit,  !- Cooling Coil Type
!     autosize,                !- Cooling Coil Gross Rated Total Capacity {W}
!     autosize,                !- Cooling Coil Gross Rated Sensible Heat Ratio
!     3.5,                     !- Cooling Coil Gross Rated COP {W/W}
!     Coil:Heating:WaterToAirHeatPump:EquationFit,  !- Heat Pump Heating Coil Type
!     autosize,                !- Heat Pump Heating Coil Gross Rated Capacity {W}
!     4.2,                     !- Heat Pump Heating Coil Gross Rated COP {W/W}
!     ,                        !- Supplemental Heating Coil Availability Schedule Name
!     0,                !- Supplemental Heating Coil Capacity {W}
!     2.5,                     !- Maximum Cycling Rate {cycles/hr}
!     60,                      !- Latent Capacity Time Constant {s}
!     60,                      !- Heat Pump Fan Delay Time {s}
!     ,                        !- Dedicated Outdoor Air System Name
!     Electric,                !- Supplemental Heating Coil Type
!     SupplyAirTemperature,    !- Zone Cooling Design Supply Air Temperature Input Method
!     14.0,                    !- Zone Cooling Design Supply Air Temperature {C}
!     ,                        !- Zone Cooling Design Supply Air Temperature Difference {deltaC}
!     SupplyAirTemperature,    !- Zone Heating Design Supply Air Temperature Input Method
!     50.0,                    !- Zone Heating Design Supply Air Temperature {C}
!     ,                        !- Zone Heating Design Supply Air Temperature Difference {deltaC}
!     ,                        !- Heat Pump Coil Water Flow Mode
!     ,                        !- Design Specification Outdoor Air Object Name
!     ,                        !- Design Specification Zone Air Distribution Object Name
!     ,                        !- Baseboard Heating Type
!     ,                        !- Baseboard Heating Availability Schedule Name
!     ;
! 
! -------------------------------------------------------------
! New objects created from ExpandObjects
! -------------------------------------------------------------
! 

ThermostatSetpoint:DualSetpoint,
  Lakeside_AllZones_Tstat Dual SP Control,                 !- Name
  SCH_HtgSP,                                               !- Heating Setpoint Temperature Schedule Name
  SCH_ClgSP;                                               !- Cooling Setpoint Temperature Schedule Name

ScheduleTypeLimits,
  HVACTemplate Any Number;                                 !- Name

Schedule:Compact,
  HVACTemplate-Always 4,                                   !- Name
  HVACTemplate Any Number,                                 !- Schedule Type Limits Name
  Through: 12/31,                                          !- Field 1
  For: AllDays,                                            !- Field 2
  Until: 24:00,                                            !- Field 3
  4;                                                       !- Field 4

ZoneControl:Thermostat,
  1F_Library_IMC Thermostat,                               !- Name
  1F_Library_IMC,                                          !- Zone or ZoneList Name
  HVACTemplate-Always 4,                                   !- Control Type Schedule Name
  ThermostatSetpoint:DualSetpoint,                         !- Control Object Type
  Lakeside_AllZones_Tstat Dual SP Control;                 !- Control Name

DesignSpecification:OutdoorAir,
  SZ DSOA 1F_Library_IMC,                                  !- Name
  Flow/Person,                                             !- Outdoor Air Method
  0.00944,                                                 !- Outdoor Air Flow per Person {m3/s}
  0.0,                                                     !- Outdoor Air Flow per Zone Floor Area {m3/s-m2}
  0.0;                                                     !- Outdoor Air Flow per Zone {m3/s}

Sizing:Zone,
  1F_Library_IMC,                                          !- Zone or ZoneList Name
  SupplyAirTemperature,                                    !- Zone Cooling Design Supply Air Temperature Input Method
  14.0,                                                    !- Zone Cooling Design Supply Air Temperature {C}
  11.11,                                                   !- Zone Cooling Design Supply Air Temperature Difference {delta C}
  SupplyAirTemperature,                                    !- Zone Heating Design Supply Air Temperature Input Method
  50.0,                                                    !- Zone Heating Design Supply Air Temperature {C}
  ,                                                        !- Zone Heating Design Supply Air Temperature Difference {delta C}
  0.008,                                                   !- Zone Cooling Design Supply Air Humidity Ratio {kg-H20/kg-air}
  0.008,                                                   !- Zone Heating Design Supply Air Humidity Ratio {kg-H2O/kg-air}
  SZ DSOA 1F_Library_IMC,                                  !- Design Specification Outdoor Air Object Name
  ,                                                        !- Zone Heating Sizing Factor
  ,                                                        !- Zone Cooling Sizing Factor
  DesignDay,                                               !- Cooling Design Air Flow Method
  0,                                                       !- Cooling Design Air Flow Rate {m3/s}
  ,                                                        !- Cooling Minimum Air Flow per Zone Floor Area {m3/s-m2}
  ,                                                        !- Cooling Minimum Air Flow {m3/s}
  0,                                                       !- Cooling Minimum Air Flow Fraction {}
  DesignDay,                                               !- Heating Design Air Flow Method
  0,                                                       !- Heating Design Air Flow Rate {m3/s}
  ,                                                        !- Heating Maximum Air Flow per Zone Floor Area {m3/s-m2}
  ,                                                        !- Heating Maximum Air Flow {m3/s}
  0,                                                       !- Heating Maximum Air Flow Fraction {}
  SZ DSZAD 1F_Library_IMC;                                 !- Design Specification Zone Air Distribution Object Name

DesignSpecification:ZoneAirDistribution,
  SZ DSZAD 1F_Library_IMC,                                 !- Name
  1,                                                       !- Zone Air Distribution Effectiveness in Cooling Mode {}
  1;                                                       !- Zone Air Distribution Effectiveness in Heating Mode {}

ZoneHVAC:EquipmentConnections,
  1F_Library_IMC,                                          !- Zone Name
  1F_Library_IMC Equipment,                                !- Zone Conditioning Equipment List Name
  1F_Library_IMC WAHP Supply Inlet,                        !- Zone Air Inlet Node or NodeList Name
  1F_Library_IMC WAHP Return,                              !- Zone Air Exhaust Node or NodeList Name
  1F_Library_IMC Zone Air Node,                            !- Zone Air Node Name
  1F_Library_IMC Return Outlet;                            !- Zone Return Air Node Name

ZoneHVAC:EquipmentList,
  1F_Library_IMC Equipment,                                !- Name
  SequentialLoad,                                          !- Load Distribution Scheme
  ZoneHVAC:WaterToAirHeatPump,                             !- Zone Equipment Object Type
  1F_Library_IMC WAHP,                                     !- Zone Equipment Name
  1,                                                       !- Zone Equipment Cooling Sequence
  1,                                                       !- Zone Equipment Heating or No-Load Sequence
  ,                                                        !- Zone Equipment Sequential Cooling Fraction Schedule Name
  ;                                                        !- Zone Equipment Sequential Heating Fraction Schedule Name
! Set heat pump outdoor air to zero, because zone is served by dedicated outdoor air system (DOAS)

ZoneHVAC:WaterToAirHeatPump,
  1F_Library_IMC WAHP,                                     !- Name
  ,                                                        !- Availability Schedule Name
  1F_Library_IMC WAHP Return,                              !- Air Inlet Node Name
  1F_Library_IMC WAHP Supply Inlet,                        !- Air Outlet Node Name
  OutdoorAir:Mixer,                                        !- Outdoor Air Mixer Object Type
  1F_Library_IMC WAHP OA Mixing Box,                       !- Outdoor Air Mixer Name
  autosize,                                                !- Cooling Supply Air Flow Rate {m3/s}
  autosize,                                                !- Heating Supply Air Flow Rate {m3/s}
  ,                                                        !- No Load Supply Air Flow Rate {m3/s}
  ,                                                        !- No Load Supply Air Flow Rate Control Set To Low Speed
  autosize,                                                !- Cooling Outdoor Air Flow Rate {m3/s}
  autosize,                                                !- Heating Outdoor Air Flow Rate {m3/s}
  autosize,                                                !- No Load Outdoor Air Flow Rate {m3/s}
  Fan:OnOff,                                               !- Supply Air Fan Object Type
  1F_Library_IMC WAHP Supply Fan,                          !- Supply Air Fan Name
  Coil:Heating:WaterToAirHeatPump:EquationFit,             !- Heating Coil Object Type
  1F_Library_IMC WAHP Heating Coil,                        !- Heating Coil Name
  Coil:Cooling:WaterToAirHeatPump:EquationFit,             !- Cooling Coil Object Type
  1F_Library_IMC WAHP Cooling Coil,                        !- Cooling Coil Name
  Coil:Heating:Electric,                                   !- Supplemental Heating Coil Object Type
  1F_Library_IMC WAHP Supp Heating Coil,                   !- Supplemental Heating Coil Name
  autosize,                                                !- Maximum Supply Air Temperature from Supplemental Heater {C}
  20.0,                                                    !- Maximum Outdoor Dry-Bulb Temperature for Supplemental Heater Operation {C}
  1F_Library_IMC WAHP Outside Air Inlet,                   !- Outdoor Dry-Bulb Temperature Sensor Node Name
  DrawThrough,                                             !- Fan Placement
  HVACTemplate-Always 0,                                   !- Supply Air Fan Operating Mode Schedule Name
  ,                                                        !- Availability Manager List Name
  Cycling;                                                 !- Heat Pump Coil Water Flow Mode

Schedule:Compact,
  HVACTemplate-Always 0,                                   !- Name
  HVACTemplate Any Number,                                 !- Schedule Type Limits Name
  Through: 12/31,                                          !- Field 1
  For: AllDays,                                            !- Field 2
  Until: 24:00,                                            !- Field 3
  0;                                                       !- Field 4

Fan:OnOff,
  1F_Library_IMC WAHP Supply Fan,                          !- Name
  HVACTemplate-Always 1,                                   !- Availability Schedule Name
  0.7,                                                     !- Fan Efficiency
  75,                                                      !- Pressure Rise {Pa}
  autosize,                                                !- Maximum Flow Rate {m3/s}
  0.9,                                                     !- Motor Efficiency
  1,                                                       !- Motor in Airstream Fraction
  1F_Library_IMC WAHP Heating Coil Outlet,                 !- Air Inlet Node Name
  1F_Library_IMC WAHP Supply Fan Outlet;                   !- Air Outlet Node Name

Schedule:Compact,
  HVACTemplate-Always 1,                                   !- Name
  HVACTemplate Any Number,                                 !- Schedule Type Limits Name
  Through: 12/31,                                          !- Field 1
  For: AllDays,                                            !- Field 2
  Until: 24:00,                                            !- Field 3
  1;                                                       !- Field 4

OutdoorAir:Mixer,
  1F_Library_IMC WAHP OA Mixing Box,                       !- Name
  1F_Library_IMC WAHP Mixed Air Outlet,                    !- Mixed Air Node Name
  1F_Library_IMC WAHP Outside Air Inlet,                   !- Outside Air Stream Node Name
  1F_Library_IMC WAHP Relief Air Outlet,                   !- Relief Air Stream Node Name
  1F_Library_IMC WAHP Return;                              !- Return Air Stream Node Name

OutdoorAir:Node,
  1F_Library_IMC WAHP Outside Air Inlet,                   !- Name
  -1;                                                      !- Height Above Ground
! Performance coefficients assume rated Capacities and COP are at:
! 26.7C (80F) entering air dry-bulb temperature, 19.4C (67F) entering air wet-bulb temperature
! and 29.4C (85F) entering water temperature

Coil:Cooling:WaterToAirHeatPump:EquationFit,
  1F_Library_IMC WAHP Cooling Coil,                        !- Name
  ,                                                        !- Availability Schedule Name
  1F_Library_IMC WAHP Cooling Water Inlet Node,            !- Water Inlet Node Name
  1F_Library_IMC WAHP Cooling Water Outlet Node,           !- Water Outlet Node Name
  1F_Library_IMC WAHP Mixed Air Outlet,                    !- Air Inlet Node Name
  1F_Library_IMC WAHP Cooling Coil Outlet,                 !- Air Outlet Node Name
  Autosize,                                                !- Rated Air Flow Rate {m3/s}
  Autosize,                                                !- Rated Water Flow Rate {m3/s}
  Autosize,                                                !- Rated Total Cooling Capacity {W}
  Autosize,                                                !- Rated Sensible Cooling Capacity {W}
  4.8,                                                     !- Rated Cooling Coefficient of Performance
  30.0,                                                    !- Rated Entering Water Temperature
  27.0,                                                    !- Rated Entering Air Dry-Bulb Temperature
  19.0,                                                    !- Rated Entering Air Wet-Bulb Temperature
  1F_Library_IMC WAHP ClgTotCapCurve,                      !- Total Cooling Capacity Curve Name
  1F_Library_IMC WAHP ClgSensCapCurve,                     !- Sensible Cooling Capacity Curve Name
  1F_Library_IMC WAHP ClgPowCurve,                         !- Cooling Power Consumption Curve Name
  1F_Library_IMC WAHP ClgPLFCurve,                         !- Part Load Fraction Correlation Curve Name
  0,                                                       !- Nominal Time for Condensate Removal to Begin {s}
  0,                                                       !- Ratio of Initial Moisture Evaporation Rate and Steady State Latent Capacity {dimensionless}
  2.5,                                                     !- Maximum Cycling Rate {cycles/hr}
  60,                                                      !- Latent Capacity Time Constant {s}
  60;                                                      !- Fan Delay Time {s}

Curve:QuadLinear,
! Total Cooling Capacity Function Curve for water-to-air heat pump
  1F_Library_IMC WAHP ClgTotCapCurve,                      !- Name
  -9.32564313298629,                                       !- Coefficient1 Constant
  11.088084240584,                                         !- Coefficient2 w
  -1.75195196204063,                                       !- Coefficient3 x
  0.760820340847872,                                       !- Coefficient4 y
  0.0,                                                     !- Coefficient5 z
  -100.0,                                                  !- Minimum Value of w
  100.0,                                                   !- Maximum Value of w
  -100.0,                                                  !- Minimum Value of x
  100.0,                                                   !- Maximum Value of x
  -100.0,                                                  !- Minimum Value of y
  100.0,                                                   !- Maximum Value of y
  -100.0,                                                  !- Minimum Value of z
  100.0;                                                   !- Maximum Value of z

Curve:QuintLinear,
! Sensible Cooling Capacity Function Curve for water-to-air heat pump
  1F_Library_IMC WAHP ClgSensCapCurve,                     !- Name
  -5.26562830117273,                                       !- Coefficient1 Constant
  17.3118017582604,                                        !- Coefficient2 v
  -11.4496890368762,                                       !- Coefficient3 w
  -0.944804890543481,                                      !- Coefficient4 x
  0.739606605780884,                                       !- Coefficient5 y
  0.0,                                                     !- Coefficient6 z
  -100.0,                                                  !- Minimum Value of v
  100.0,                                                   !- Maximum Value of v
  -100.0,                                                  !- Minimum Value of w
  100.0,                                                   !- Maximum Value of w
  -100.0,                                                  !- Minimum Value of x
  100.0,                                                   !- Maximum Value of x
  -100.0,                                                  !- Minimum Value of y
  100.0,                                                   !- Maximum Value of y
  -100.0,                                                  !- Minimum Value of z
  100.0;                                                   !- Maximum Value of z

Curve:QuadLinear,
! Cooling Power Consumption Function Curve for water-to-air heat pump
  1F_Library_IMC WAHP ClgPowCurve,                         !- Name
  -3.25323327026219,                                       !- Coefficient1 Constant
  -0.990977022339372,                                      !- Coefficient2 w
  4.03828937789764,                                        !- Coefficient3 x
  0.952179101682919,                                       !- Coefficient4 y
  0.0,                                                     !- Coefficient5 z
  -100.0,                                                  !- Minimum Value of w
  100.0,                                                   !- Maximum Value of w
  -100.0,                                                  !- Minimum Value of x
  100.0,                                                   !- Maximum Value of x
  -100.0,                                                  !- Minimum Value of y
  100.0,                                                   !- Maximum Value of y
  -100.0,                                                  !- Minimum Value of z
  100.0;                                                   !- Maximum Value of z
! Part Load Fraction Curve for water-to-air heat pump

Curve:Quadratic,
  1F_Library_IMC WAHP ClgPLFCurve,                         !- Name
  0.85,                                                    !- Coefficient1 Constant
  0.15,                                                    !- Coefficient2 x
  0.0,                                                     !- Coefficient3 x**2
  0.0,                                                     !- Minimum Value of x
  1.0;                                                     !- Maximum Value of x
! Performance coefficients assume rated Capacity and COP are at:
! 21.11C (70F) entering air dry-bulb temperature and 21.11C (70F) entering water temperature

Coil:Heating:WaterToAirHeatPump:EquationFit,
  1F_Library_IMC WAHP Heating Coil,                        !- Name
  ,                                                        !- Availability Schedule Name
  1F_Library_IMC WAHP Heating Water Inlet Node,            !- Water Inlet Node Name
  1F_Library_IMC WAHP Heating Water Outlet Node,           !- Water Outlet Node Name
  1F_Library_IMC WAHP Cooling Coil Outlet,                 !- Air Inlet Node Name
  1F_Library_IMC WAHP Heating Coil Outlet,                 !- Air Outlet Node Name
  Autosize,                                                !- Rated Air Flow Rate {m3/s}
  Autosize,                                                !- Rated Water Flow Rate {m3/s}
  Autosize,                                                !- Rated Heating Capacity {W}
  4.5,                                                     !- Rated Heating Coefficient of Performance
  20.0,                                                    !- Rated Entering Water Temperature
  20.0,                                                    !- Rated Entering Air Dry-Bulb Temperature
  1.0,                                                     !- Ratio of Rated Heating Capacity to Rated Cooling Capacity
  1F_Library_IMC WAHP HtgCapCurve,                         !- Heating Capacity Curve Name
  1F_Library_IMC WAHP HtgPowCurve,                         !- Heating Power Consumption Curve Name
  1F_Library_IMC WAHP HtgPLFCurve;                         !- Part Load Fraction Correlation Curve Name

Curve:QuadLinear,
! Heating Capacity Function Curve for water-to-air heat pump
  1F_Library_IMC WAHP HtgCapCurve,                         !- Name
  -1.30782327125798,                                       !- Coefficient1 Constant
  -2.37467612404102,                                       !- Coefficient2 w
  4.00919247797279,                                        !- Coefficient3 x
  0.615580752610271,                                       !- Coefficient4 y
  0.0,                                                     !- Coefficient5 z
  -100.0,                                                  !- Minimum Value of w
  100.0,                                                   !- Maximum Value of w
  -100.0,                                                  !- Minimum Value of x
  100.0,                                                   !- Maximum Value of x
  -100.0,                                                  !- Minimum Value of y
  100.0,                                                   !- Maximum Value of y
  -100.0,                                                  !- Minimum Value of z
  100.0;                                                   !- Maximum Value of z

Curve:QuadLinear,
! Heating Power Consumption Function Curve for water-to-air heat pump
  1F_Library_IMC WAHP HtgPowCurve,                         !- Name
  -2.17352461285805,                                       !- Coefficient1 Constant
  0.830808361346509,                                       !- Coefficient2 w
  1.5682782658283,                                         !- Coefficient3 x
  0.689709515714146,                                       !- Coefficient4 y
  0.0,                                                     !- Coefficient5 z
  -100.0,                                                  !- Minimum Value of w
  100.0,                                                   !- Maximum Value of w
  -100.0,                                                  !- Minimum Value of x
  100.0,                                                   !- Maximum Value of x
  -100.0,                                                  !- Minimum Value of y
  100.0,                                                   !- Maximum Value of y
  -100.0,                                                  !- Minimum Value of z
  100.0;                                                   !- Maximum Value of z
! Part Load Fraction Curve for water-to-air heat pump

Curve:Quadratic,
  1F_Library_IMC WAHP HtgPLFCurve,                         !- Name
  0.85,                                                    !- Coefficient1 Constant
  0.15,                                                    !- Coefficient2 x
  0.0,                                                     !- Coefficient3 x**2
  0.0,                                                     !- Minimum Value of x
  1.0;                                                     !- Maximum Value of x

Coil:Heating:Electric,
  1F_Library_IMC WAHP Supp Heating Coil,                   !- Name
  ,                                                        !- Availability Schedule Name
  1,                                                       !- Efficiency
  0,                                                       !- Nominal Capacity of the Coil {W}
  1F_Library_IMC WAHP Supply Fan Outlet,                   !- Air Inlet Node Name
  1F_Library_IMC WAHP Supply Inlet,                        !- Air Outlet Node Name
  ;                                                        !- Coil Temp Setpoint Node

Branch,
  1F_Library_IMC Cooling Condenser Branch,                 !- Name
  ,                                                        !- Pressure Drop Curve Name
  Coil:Cooling:WaterToAirHeatPump:EquationFit,             !- Component Object Type
  1F_Library_IMC WAHP Cooling Coil,                        !- Component Name
  1F_Library_IMC WAHP Cooling Water Inlet Node,            !- Component Inlet Node Name
  1F_Library_IMC WAHP Cooling Water Outlet Node;           !- Component Outlet Node Name

Branch,
  1F_Library_IMC Heating Condenser Branch,                 !- Name
  ,                                                        !- Pressure Drop Curve Name
  Coil:Heating:WaterToAirHeatPump:EquationFit,             !- Component Object Type
  1F_Library_IMC WAHP Heating Coil,                        !- Component Name
  1F_Library_IMC WAHP Heating Water Inlet Node,            !- Component Inlet Node Name
  1F_Library_IMC WAHP Heating Water Outlet Node;           !- Component Outlet Node Name

ZoneControl:Thermostat,
  1F_Cafe_Kitchen Thermostat,                              !- Name
  1F_Cafe_Kitchen,                                         !- Zone or ZoneList Name
  HVACTemplate-Always 4,                                   !- Control Type Schedule Name
  ThermostatSetpoint:DualSetpoint,                         !- Control Object Type
  Lakeside_AllZones_Tstat Dual SP Control;                 !- Control Name

DesignSpecification:OutdoorAir,
  SZ DSOA 1F_Cafe_Kitchen,                                 !- Name
  Flow/Person,                                             !- Outdoor Air Method
  0.00944,                                                 !- Outdoor Air Flow per Person {m3/s}
  0.0,                                                     !- Outdoor Air Flow per Zone Floor Area {m3/s-m2}
  0.0;                                                     !- Outdoor Air Flow per Zone {m3/s}

Sizing:Zone,
  1F_Cafe_Kitchen,                                         !- Zone or ZoneList Name
  SupplyAirTemperature,                                    !- Zone Cooling Design Supply Air Temperature Input Method
  14.0,                                                    !- Zone Cooling Design Supply Air Temperature {C}
  11.11,                                                   !- Zone Cooling Design Supply Air Temperature Difference {delta C}
  SupplyAirTemperature,                                    !- Zone Heating Design Supply Air Temperature Input Method
  50.0,                                                    !- Zone Heating Design Supply Air Temperature {C}
  ,                                                        !- Zone Heating Design Supply Air Temperature Difference {delta C}
  0.008,                                                   !- Zone Cooling Design Supply Air Humidity Ratio {kg-H20/kg-air}
  0.008,                                                   !- Zone Heating Design Supply Air Humidity Ratio {kg-H2O/kg-air}
  SZ DSOA 1F_Cafe_Kitchen,                                 !- Design Specification Outdoor Air Object Name
  ,                                                        !- Zone Heating Sizing Factor
  ,                                                        !- Zone Cooling Sizing Factor
  DesignDay,                                               !- Cooling Design Air Flow Method
  0,                                                       !- Cooling Design Air Flow Rate {m3/s}
  ,                                                        !- Cooling Minimum Air Flow per Zone Floor Area {m3/s-m2}
  ,                                                        !- Cooling Minimum Air Flow {m3/s}
  0,                                                       !- Cooling Minimum Air Flow Fraction {}
  DesignDay,                                               !- Heating Design Air Flow Method
  0,                                                       !- Heating Design Air Flow Rate {m3/s}
  ,                                                        !- Heating Maximum Air Flow per Zone Floor Area {m3/s-m2}
  ,                                                        !- Heating Maximum Air Flow {m3/s}
  0,                                                       !- Heating Maximum Air Flow Fraction {}
  SZ DSZAD 1F_Cafe_Kitchen;                                !- Design Specification Zone Air Distribution Object Name

DesignSpecification:ZoneAirDistribution,
  SZ DSZAD 1F_Cafe_Kitchen,                                !- Name
  1,                                                       !- Zone Air Distribution Effectiveness in Cooling Mode {}
  1;                                                       !- Zone Air Distribution Effectiveness in Heating Mode {}

ZoneHVAC:EquipmentConnections,
  1F_Cafe_Kitchen,                                         !- Zone Name
  1F_Cafe_Kitchen Equipment,                               !- Zone Conditioning Equipment List Name
  1F_Cafe_Kitchen WAHP Supply Inlet,                       !- Zone Air Inlet Node or NodeList Name
  1F_Cafe_Kitchen WAHP Return,                             !- Zone Air Exhaust Node or NodeList Name
  1F_Cafe_Kitchen Zone Air Node,                           !- Zone Air Node Name
  1F_Cafe_Kitchen Return Outlet;                           !- Zone Return Air Node Name

ZoneHVAC:EquipmentList,
  1F_Cafe_Kitchen Equipment,                               !- Name
  SequentialLoad,                                          !- Load Distribution Scheme
  ZoneHVAC:WaterToAirHeatPump,                             !- Zone Equipment Object Type
  1F_Cafe_Kitchen WAHP,                                    !- Zone Equipment Name
  1,                                                       !- Zone Equipment Cooling Sequence
  1,                                                       !- Zone Equipment Heating or No-Load Sequence
  ,                                                        !- Zone Equipment Sequential Cooling Fraction Schedule Name
  ;                                                        !- Zone Equipment Sequential Heating Fraction Schedule Name
! Set heat pump outdoor air to zero, because zone is served by dedicated outdoor air system (DOAS)

ZoneHVAC:WaterToAirHeatPump,
  1F_Cafe_Kitchen WAHP,                                    !- Name
  ,                                                        !- Availability Schedule Name
  1F_Cafe_Kitchen WAHP Return,                             !- Air Inlet Node Name
  1F_Cafe_Kitchen WAHP Supply Inlet,                       !- Air Outlet Node Name
  OutdoorAir:Mixer,                                        !- Outdoor Air Mixer Object Type
  1F_Cafe_Kitchen WAHP OA Mixing Box,                      !- Outdoor Air Mixer Name
  autosize,                                                !- Cooling Supply Air Flow Rate {m3/s}
  autosize,                                                !- Heating Supply Air Flow Rate {m3/s}
  ,                                                        !- No Load Supply Air Flow Rate {m3/s}
  ,                                                        !- No Load Supply Air Flow Rate Control Set To Low Speed
  autosize,                                                !- Cooling Outdoor Air Flow Rate {m3/s}
  autosize,                                                !- Heating Outdoor Air Flow Rate {m3/s}
  autosize,                                                !- No Load Outdoor Air Flow Rate {m3/s}
  Fan:OnOff,                                               !- Supply Air Fan Object Type
  1F_Cafe_Kitchen WAHP Supply Fan,                         !- Supply Air Fan Name
  Coil:Heating:WaterToAirHeatPump:EquationFit,             !- Heating Coil Object Type
  1F_Cafe_Kitchen WAHP Heating Coil,                       !- Heating Coil Name
  Coil:Cooling:WaterToAirHeatPump:EquationFit,             !- Cooling Coil Object Type
  1F_Cafe_Kitchen WAHP Cooling Coil,                       !- Cooling Coil Name
  Coil:Heating:Electric,                                   !- Supplemental Heating Coil Object Type
  1F_Cafe_Kitchen WAHP Supp Heating Coil,                  !- Supplemental Heating Coil Name
  autosize,                                                !- Maximum Supply Air Temperature from Supplemental Heater {C}
  20.0,                                                    !- Maximum Outdoor Dry-Bulb Temperature for Supplemental Heater Operation {C}
  1F_Cafe_Kitchen WAHP Outside Air Inlet,                  !- Outdoor Dry-Bulb Temperature Sensor Node Name
  DrawThrough,                                             !- Fan Placement
  HVACTemplate-Always 0,                                   !- Supply Air Fan Operating Mode Schedule Name
  ,                                                        !- Availability Manager List Name
  Cycling;                                                 !- Heat Pump Coil Water Flow Mode

Fan:OnOff,
  1F_Cafe_Kitchen WAHP Supply Fan,                         !- Name
  HVACTemplate-Always 1,                                   !- Availability Schedule Name
  0.7,                                                     !- Fan Efficiency
  75,                                                      !- Pressure Rise {Pa}
  autosize,                                                !- Maximum Flow Rate {m3/s}
  0.9,                                                     !- Motor Efficiency
  1,                                                       !- Motor in Airstream Fraction
  1F_Cafe_Kitchen WAHP Heating Coil Outlet,                !- Air Inlet Node Name
  1F_Cafe_Kitchen WAHP Supply Fan Outlet;                  !- Air Outlet Node Name

OutdoorAir:Mixer,
  1F_Cafe_Kitchen WAHP OA Mixing Box,                      !- Name
  1F_Cafe_Kitchen WAHP Mixed Air Outlet,                   !- Mixed Air Node Name
  1F_Cafe_Kitchen WAHP Outside Air Inlet,                  !- Outside Air Stream Node Name
  1F_Cafe_Kitchen WAHP Relief Air Outlet,                  !- Relief Air Stream Node Name
  1F_Cafe_Kitchen WAHP Return;                             !- Return Air Stream Node Name

OutdoorAir:Node,
  1F_Cafe_Kitchen WAHP Outside Air Inlet,                  !- Name
  -1;                                                      !- Height Above Ground
! Performance coefficients assume rated Capacities and COP are at:
! 26.7C (80F) entering air dry-bulb temperature, 19.4C (67F) entering air wet-bulb temperature
! and 29.4C (85F) entering water temperature

Coil:Cooling:WaterToAirHeatPump:EquationFit,
  1F_Cafe_Kitchen WAHP Cooling Coil,                       !- Name
  ,                                                        !- Availability Schedule Name
  1F_Cafe_Kitchen WAHP Cooling Water Inlet Node,           !- Water Inlet Node Name
  1F_Cafe_Kitchen WAHP Cooling Water Outlet Node,          !- Water Outlet Node Name
  1F_Cafe_Kitchen WAHP Mixed Air Outlet,                   !- Air Inlet Node Name
  1F_Cafe_Kitchen WAHP Cooling Coil Outlet,                !- Air Outlet Node Name
  Autosize,                                                !- Rated Air Flow Rate {m3/s}
  Autosize,                                                !- Rated Water Flow Rate {m3/s}
  Autosize,                                                !- Rated Total Cooling Capacity {W}
  Autosize,                                                !- Rated Sensible Cooling Capacity {W}
  4.8,                                                     !- Rated Cooling Coefficient of Performance
  30.0,                                                    !- Rated Entering Water Temperature
  27.0,                                                    !- Rated Entering Air Dry-Bulb Temperature
  19.0,                                                    !- Rated Entering Air Wet-Bulb Temperature
  1F_Cafe_Kitchen WAHP ClgTotCapCurve,                     !- Total Cooling Capacity Curve Name
  1F_Cafe_Kitchen WAHP ClgSensCapCurve,                    !- Sensible Cooling Capacity Curve Name
  1F_Cafe_Kitchen WAHP ClgPowCurve,                        !- Cooling Power Consumption Curve Name
  1F_Cafe_Kitchen WAHP ClgPLFCurve,                        !- Part Load Fraction Correlation Curve Name
  0,                                                       !- Nominal Time for Condensate Removal to Begin {s}
  0,                                                       !- Ratio of Initial Moisture Evaporation Rate and Steady State Latent Capacity {dimensionless}
  2.5,                                                     !- Maximum Cycling Rate {cycles/hr}
  60,                                                      !- Latent Capacity Time Constant {s}
  60;                                                      !- Fan Delay Time {s}

Curve:QuadLinear,
! Total Cooling Capacity Function Curve for water-to-air heat pump
  1F_Cafe_Kitchen WAHP ClgTotCapCurve,                     !- Name
  -9.32564313298629,                                       !- Coefficient1 Constant
  11.088084240584,                                         !- Coefficient2 w
  -1.75195196204063,                                       !- Coefficient3 x
  0.760820340847872,                                       !- Coefficient4 y
  0.0,                                                     !- Coefficient5 z
  -100.0,                                                  !- Minimum Value of w
  100.0,                                                   !- Maximum Value of w
  -100.0,                                                  !- Minimum Value of x
  100.0,                                                   !- Maximum Value of x
  -100.0,                                                  !- Minimum Value of y
  100.0,                                                   !- Maximum Value of y
  -100.0,                                                  !- Minimum Value of z
  100.0;                                                   !- Maximum Value of z

Curve:QuintLinear,
! Sensible Cooling Capacity Function Curve for water-to-air heat pump
  1F_Cafe_Kitchen WAHP ClgSensCapCurve,                    !- Name
  -5.26562830117273,                                       !- Coefficient1 Constant
  17.3118017582604,                                        !- Coefficient2 v
  -11.4496890368762,                                       !- Coefficient3 w
  -0.944804890543481,                                      !- Coefficient4 x
  0.739606605780884,                                       !- Coefficient5 y
  0.0,                                                     !- Coefficient6 z
  -100.0,                                                  !- Minimum Value of v
  100.0,                                                   !- Maximum Value of v
  -100.0,                                                  !- Minimum Value of w
  100.0,                                                   !- Maximum Value of w
  -100.0,                                                  !- Minimum Value of x
  100.0,                                                   !- Maximum Value of x
  -100.0,                                                  !- Minimum Value of y
  100.0,                                                   !- Maximum Value of y
  -100.0,                                                  !- Minimum Value of z
  100.0;                                                   !- Maximum Value of z

Curve:QuadLinear,
! Cooling Power Consumption Function Curve for water-to-air heat pump
  1F_Cafe_Kitchen WAHP ClgPowCurve,                        !- Name
  -3.25323327026219,                                       !- Coefficient1 Constant
  -0.990977022339372,                                      !- Coefficient2 w
  4.03828937789764,                                        !- Coefficient3 x
  0.952179101682919,                                       !- Coefficient4 y
  0.0,                                                     !- Coefficient5 z
  -100.0,                                                  !- Minimum Value of w
  100.0,                                                   !- Maximum Value of w
  -100.0,                                                  !- Minimum Value of x
  100.0,                                                   !- Maximum Value of x
  -100.0,                                                  !- Minimum Value of y
  100.0,                                                   !- Maximum Value of y
  -100.0,                                                  !- Minimum Value of z
  100.0;                                                   !- Maximum Value of z
! Part Load Fraction Curve for water-to-air heat pump

Curve:Quadratic,
  1F_Cafe_Kitchen WAHP ClgPLFCurve,                        !- Name
  0.85,                                                    !- Coefficient1 Constant
  0.15,                                                    !- Coefficient2 x
  0.0,                                                     !- Coefficient3 x**2
  0.0,                                                     !- Minimum Value of x
  1.0;                                                     !- Maximum Value of x
! Performance coefficients assume rated Capacity and COP are at:
! 21.11C (70F) entering air dry-bulb temperature and 21.11C (70F) entering water temperature

Coil:Heating:WaterToAirHeatPump:EquationFit,
  1F_Cafe_Kitchen WAHP Heating Coil,                       !- Name
  ,                                                        !- Availability Schedule Name
  1F_Cafe_Kitchen WAHP Heating Water Inlet Node,           !- Water Inlet Node Name
  1F_Cafe_Kitchen WAHP Heating Water Outlet Node,          !- Water Outlet Node Name
  1F_Cafe_Kitchen WAHP Cooling Coil Outlet,                !- Air Inlet Node Name
  1F_Cafe_Kitchen WAHP Heating Coil Outlet,                !- Air Outlet Node Name
  Autosize,                                                !- Rated Air Flow Rate {m3/s}
  Autosize,                                                !- Rated Water Flow Rate {m3/s}
  Autosize,                                                !- Rated Heating Capacity {W}
  4.5,                                                     !- Rated Heating Coefficient of Performance
  20.0,                                                    !- Rated Entering Water Temperature
  20.0,                                                    !- Rated Entering Air Dry-Bulb Temperature
  1.0,                                                     !- Ratio of Rated Heating Capacity to Rated Cooling Capacity
  1F_Cafe_Kitchen WAHP HtgCapCurve,                        !- Heating Capacity Curve Name
  1F_Cafe_Kitchen WAHP HtgPowCurve,                        !- Heating Power Consumption Curve Name
  1F_Cafe_Kitchen WAHP HtgPLFCurve;                        !- Part Load Fraction Correlation Curve Name

Curve:QuadLinear,
! Heating Capacity Function Curve for water-to-air heat pump
  1F_Cafe_Kitchen WAHP HtgCapCurve,                        !- Name
  -1.30782327125798,                                       !- Coefficient1 Constant
  -2.37467612404102,                                       !- Coefficient2 w
  4.00919247797279,                                        !- Coefficient3 x
  0.615580752610271,                                       !- Coefficient4 y
  0.0,                                                     !- Coefficient5 z
  -100.0,                                                  !- Minimum Value of w
  100.0,                                                   !- Maximum Value of w
  -100.0,                                                  !- Minimum Value of x
  100.0,                                                   !- Maximum Value of x
  -100.0,                                                  !- Minimum Value of y
  100.0,                                                   !- Maximum Value of y
  -100.0,                                                  !- Minimum Value of z
  100.0;                                                   !- Maximum Value of z

Curve:QuadLinear,
! Heating Power Consumption Function Curve for water-to-air heat pump
  1F_Cafe_Kitchen WAHP HtgPowCurve,                        !- Name
  -2.17352461285805,                                       !- Coefficient1 Constant
  0.830808361346509,                                       !- Coefficient2 w
  1.5682782658283,                                         !- Coefficient3 x
  0.689709515714146,                                       !- Coefficient4 y
  0.0,                                                     !- Coefficient5 z
  -100.0,                                                  !- Minimum Value of w
  100.0,                                                   !- Maximum Value of w
  -100.0,                                                  !- Minimum Value of x
  100.0,                                                   !- Maximum Value of x
  -100.0,                                                  !- Minimum Value of y
  100.0,                                                   !- Maximum Value of y
  -100.0,                                                  !- Minimum Value of z
  100.0;                                                   !- Maximum Value of z
! Part Load Fraction Curve for water-to-air heat pump

Curve:Quadratic,
  1F_Cafe_Kitchen WAHP HtgPLFCurve,                        !- Name
  0.85,                                                    !- Coefficient1 Constant
  0.15,                                                    !- Coefficient2 x
  0.0,                                                     !- Coefficient3 x**2
  0.0,                                                     !- Minimum Value of x
  1.0;                                                     !- Maximum Value of x

Coil:Heating:Electric,
  1F_Cafe_Kitchen WAHP Supp Heating Coil,                  !- Name
  ,                                                        !- Availability Schedule Name
  1,                                                       !- Efficiency
  0,                                                       !- Nominal Capacity of the Coil {W}
  1F_Cafe_Kitchen WAHP Supply Fan Outlet,                  !- Air Inlet Node Name
  1F_Cafe_Kitchen WAHP Supply Inlet,                       !- Air Outlet Node Name
  ;                                                        !- Coil Temp Setpoint Node

Branch,
  1F_Cafe_Kitchen Cooling Condenser Branch,                !- Name
  ,                                                        !- Pressure Drop Curve Name
  Coil:Cooling:WaterToAirHeatPump:EquationFit,             !- Component Object Type
  1F_Cafe_Kitchen WAHP Cooling Coil,                       !- Component Name
  1F_Cafe_Kitchen WAHP Cooling Water Inlet Node,           !- Component Inlet Node Name
  1F_Cafe_Kitchen WAHP Cooling Water Outlet Node;          !- Component Outlet Node Name

Branch,
  1F_Cafe_Kitchen Heating Condenser Branch,                !- Name
  ,                                                        !- Pressure Drop Curve Name
  Coil:Heating:WaterToAirHeatPump:EquationFit,             !- Component Object Type
  1F_Cafe_Kitchen WAHP Heating Coil,                       !- Component Name
  1F_Cafe_Kitchen WAHP Heating Water Inlet Node,           !- Component Inlet Node Name
  1F_Cafe_Kitchen WAHP Heating Water Outlet Node;          !- Component Outlet Node Name

ZoneControl:Thermostat,
  1F_Gym Thermostat,                                       !- Name
  1F_Gym,                                                  !- Zone or ZoneList Name
  HVACTemplate-Always 4,                                   !- Control Type Schedule Name
  ThermostatSetpoint:DualSetpoint,                         !- Control Object Type
  Lakeside_AllZones_Tstat Dual SP Control;                 !- Control Name

DesignSpecification:OutdoorAir,
  SZ DSOA 1F_Gym,                                          !- Name
  Flow/Person,                                             !- Outdoor Air Method
  0.00944,                                                 !- Outdoor Air Flow per Person {m3/s}
  0.0,                                                     !- Outdoor Air Flow per Zone Floor Area {m3/s-m2}
  0.0;                                                     !- Outdoor Air Flow per Zone {m3/s}

Sizing:Zone,
  1F_Gym,                                                  !- Zone or ZoneList Name
  SupplyAirTemperature,                                    !- Zone Cooling Design Supply Air Temperature Input Method
  14.0,                                                    !- Zone Cooling Design Supply Air Temperature {C}
  11.11,                                                   !- Zone Cooling Design Supply Air Temperature Difference {delta C}
  SupplyAirTemperature,                                    !- Zone Heating Design Supply Air Temperature Input Method
  50.0,                                                    !- Zone Heating Design Supply Air Temperature {C}
  ,                                                        !- Zone Heating Design Supply Air Temperature Difference {delta C}
  0.008,                                                   !- Zone Cooling Design Supply Air Humidity Ratio {kg-H20/kg-air}
  0.008,                                                   !- Zone Heating Design Supply Air Humidity Ratio {kg-H2O/kg-air}
  SZ DSOA 1F_Gym,                                          !- Design Specification Outdoor Air Object Name
  ,                                                        !- Zone Heating Sizing Factor
  ,                                                        !- Zone Cooling Sizing Factor
  DesignDay,                                               !- Cooling Design Air Flow Method
  0,                                                       !- Cooling Design Air Flow Rate {m3/s}
  ,                                                        !- Cooling Minimum Air Flow per Zone Floor Area {m3/s-m2}
  ,                                                        !- Cooling Minimum Air Flow {m3/s}
  0,                                                       !- Cooling Minimum Air Flow Fraction {}
  DesignDay,                                               !- Heating Design Air Flow Method
  0,                                                       !- Heating Design Air Flow Rate {m3/s}
  ,                                                        !- Heating Maximum Air Flow per Zone Floor Area {m3/s-m2}
  ,                                                        !- Heating Maximum Air Flow {m3/s}
  0,                                                       !- Heating Maximum Air Flow Fraction {}
  SZ DSZAD 1F_Gym;                                         !- Design Specification Zone Air Distribution Object Name

DesignSpecification:ZoneAirDistribution,
  SZ DSZAD 1F_Gym,                                         !- Name
  1,                                                       !- Zone Air Distribution Effectiveness in Cooling Mode {}
  1;                                                       !- Zone Air Distribution Effectiveness in Heating Mode {}

ZoneHVAC:EquipmentConnections,
  1F_Gym,                                                  !- Zone Name
  1F_Gym Equipment,                                        !- Zone Conditioning Equipment List Name
  1F_Gym WAHP Supply Inlet,                                !- Zone Air Inlet Node or NodeList Name
  1F_Gym WAHP Return,                                      !- Zone Air Exhaust Node or NodeList Name
  1F_Gym Zone Air Node,                                    !- Zone Air Node Name
  1F_Gym Return Outlet;                                    !- Zone Return Air Node Name

ZoneHVAC:EquipmentList,
  1F_Gym Equipment,                                        !- Name
  SequentialLoad,                                          !- Load Distribution Scheme
  ZoneHVAC:WaterToAirHeatPump,                             !- Zone Equipment Object Type
  1F_Gym WAHP,                                             !- Zone Equipment Name
  1,                                                       !- Zone Equipment Cooling Sequence
  1,                                                       !- Zone Equipment Heating or No-Load Sequence
  ,                                                        !- Zone Equipment Sequential Cooling Fraction Schedule Name
  ;                                                        !- Zone Equipment Sequential Heating Fraction Schedule Name
! Set heat pump outdoor air to zero, because zone is served by dedicated outdoor air system (DOAS)

ZoneHVAC:WaterToAirHeatPump,
  1F_Gym WAHP,                                             !- Name
  ,                                                        !- Availability Schedule Name
  1F_Gym WAHP Return,                                      !- Air Inlet Node Name
  1F_Gym WAHP Supply Inlet,                                !- Air Outlet Node Name
  OutdoorAir:Mixer,                                        !- Outdoor Air Mixer Object Type
  1F_Gym WAHP OA Mixing Box,                               !- Outdoor Air Mixer Name
  autosize,                                                !- Cooling Supply Air Flow Rate {m3/s}
  autosize,                                                !- Heating Supply Air Flow Rate {m3/s}
  ,                                                        !- No Load Supply Air Flow Rate {m3/s}
  ,                                                        !- No Load Supply Air Flow Rate Control Set To Low Speed
  autosize,                                                !- Cooling Outdoor Air Flow Rate {m3/s}
  autosize,                                                !- Heating Outdoor Air Flow Rate {m3/s}
  autosize,                                                !- No Load Outdoor Air Flow Rate {m3/s}
  Fan:OnOff,                                               !- Supply Air Fan Object Type
  1F_Gym WAHP Supply Fan,                                  !- Supply Air Fan Name
  Coil:Heating:WaterToAirHeatPump:EquationFit,             !- Heating Coil Object Type
  1F_Gym WAHP Heating Coil,                                !- Heating Coil Name
  Coil:Cooling:WaterToAirHeatPump:EquationFit,             !- Cooling Coil Object Type
  1F_Gym WAHP Cooling Coil,                                !- Cooling Coil Name
  Coil:Heating:Electric,                                   !- Supplemental Heating Coil Object Type
  1F_Gym WAHP Supp Heating Coil,                           !- Supplemental Heating Coil Name
  autosize,                                                !- Maximum Supply Air Temperature from Supplemental Heater {C}
  20.0,                                                    !- Maximum Outdoor Dry-Bulb Temperature for Supplemental Heater Operation {C}
  1F_Gym WAHP Outside Air Inlet,                           !- Outdoor Dry-Bulb Temperature Sensor Node Name
  DrawThrough,                                             !- Fan Placement
  HVACTemplate-Always 0,                                   !- Supply Air Fan Operating Mode Schedule Name
  ,                                                        !- Availability Manager List Name
  Cycling;                                                 !- Heat Pump Coil Water Flow Mode

Fan:OnOff,
  1F_Gym WAHP Supply Fan,                                  !- Name
  HVACTemplate-Always 1,                                   !- Availability Schedule Name
  0.7,                                                     !- Fan Efficiency
  75,                                                      !- Pressure Rise {Pa}
  autosize,                                                !- Maximum Flow Rate {m3/s}
  0.9,                                                     !- Motor Efficiency
  1,                                                       !- Motor in Airstream Fraction
  1F_Gym WAHP Heating Coil Outlet,                         !- Air Inlet Node Name
  1F_Gym WAHP Supply Fan Outlet;                           !- Air Outlet Node Name

OutdoorAir:Mixer,
  1F_Gym WAHP OA Mixing Box,                               !- Name
  1F_Gym WAHP Mixed Air Outlet,                            !- Mixed Air Node Name
  1F_Gym WAHP Outside Air Inlet,                           !- Outside Air Stream Node Name
  1F_Gym WAHP Relief Air Outlet,                           !- Relief Air Stream Node Name
  1F_Gym WAHP Return;                                      !- Return Air Stream Node Name

OutdoorAir:Node,
  1F_Gym WAHP Outside Air Inlet,                           !- Name
  -1;                                                      !- Height Above Ground
! Performance coefficients assume rated Capacities and COP are at:
! 26.7C (80F) entering air dry-bulb temperature, 19.4C (67F) entering air wet-bulb temperature
! and 29.4C (85F) entering water temperature

Coil:Cooling:WaterToAirHeatPump:EquationFit,
  1F_Gym WAHP Cooling Coil,                                !- Name
  ,                                                        !- Availability Schedule Name
  1F_Gym WAHP Cooling Water Inlet Node,                    !- Water Inlet Node Name
  1F_Gym WAHP Cooling Water Outlet Node,                   !- Water Outlet Node Name
  1F_Gym WAHP Mixed Air Outlet,                            !- Air Inlet Node Name
  1F_Gym WAHP Cooling Coil Outlet,                         !- Air Outlet Node Name
  Autosize,                                                !- Rated Air Flow Rate {m3/s}
  Autosize,                                                !- Rated Water Flow Rate {m3/s}
  Autosize,                                                !- Rated Total Cooling Capacity {W}
  Autosize,                                                !- Rated Sensible Cooling Capacity {W}
  4.8,                                                     !- Rated Cooling Coefficient of Performance
  30.0,                                                    !- Rated Entering Water Temperature
  27.0,                                                    !- Rated Entering Air Dry-Bulb Temperature
  19.0,                                                    !- Rated Entering Air Wet-Bulb Temperature
  1F_Gym WAHP ClgTotCapCurve,                              !- Total Cooling Capacity Curve Name
  1F_Gym WAHP ClgSensCapCurve,                             !- Sensible Cooling Capacity Curve Name
  1F_Gym WAHP ClgPowCurve,                                 !- Cooling Power Consumption Curve Name
  1F_Gym WAHP ClgPLFCurve,                                 !- Part Load Fraction Correlation Curve Name
  0,                                                       !- Nominal Time for Condensate Removal to Begin {s}
  0,                                                       !- Ratio of Initial Moisture Evaporation Rate and Steady State Latent Capacity {dimensionless}
  2.5,                                                     !- Maximum Cycling Rate {cycles/hr}
  60,                                                      !- Latent Capacity Time Constant {s}
  60;                                                      !- Fan Delay Time {s}

Curve:QuadLinear,
! Total Cooling Capacity Function Curve for water-to-air heat pump
  1F_Gym WAHP ClgTotCapCurve,                              !- Name
  -9.32564313298629,                                       !- Coefficient1 Constant
  11.088084240584,                                         !- Coefficient2 w
  -1.75195196204063,                                       !- Coefficient3 x
  0.760820340847872,                                       !- Coefficient4 y
  0.0,                                                     !- Coefficient5 z
  -100.0,                                                  !- Minimum Value of w
  100.0,                                                   !- Maximum Value of w
  -100.0,                                                  !- Minimum Value of x
  100.0,                                                   !- Maximum Value of x
  -100.0,                                                  !- Minimum Value of y
  100.0,                                                   !- Maximum Value of y
  -100.0,                                                  !- Minimum Value of z
  100.0;                                                   !- Maximum Value of z

Curve:QuintLinear,
! Sensible Cooling Capacity Function Curve for water-to-air heat pump
  1F_Gym WAHP ClgSensCapCurve,                             !- Name
  -5.26562830117273,                                       !- Coefficient1 Constant
  17.3118017582604,                                        !- Coefficient2 v
  -11.4496890368762,                                       !- Coefficient3 w
  -0.944804890543481,                                      !- Coefficient4 x
  0.739606605780884,                                       !- Coefficient5 y
  0.0,                                                     !- Coefficient6 z
  -100.0,                                                  !- Minimum Value of v
  100.0,                                                   !- Maximum Value of v
  -100.0,                                                  !- Minimum Value of w
  100.0,                                                   !- Maximum Value of w
  -100.0,                                                  !- Minimum Value of x
  100.0,                                                   !- Maximum Value of x
  -100.0,                                                  !- Minimum Value of y
  100.0,                                                   !- Maximum Value of y
  -100.0,                                                  !- Minimum Value of z
  100.0;                                                   !- Maximum Value of z

Curve:QuadLinear,
! Cooling Power Consumption Function Curve for water-to-air heat pump
  1F_Gym WAHP ClgPowCurve,                                 !- Name
  -3.25323327026219,                                       !- Coefficient1 Constant
  -0.990977022339372,                                      !- Coefficient2 w
  4.03828937789764,                                        !- Coefficient3 x
  0.952179101682919,                                       !- Coefficient4 y
  0.0,                                                     !- Coefficient5 z
  -100.0,                                                  !- Minimum Value of w
  100.0,                                                   !- Maximum Value of w
  -100.0,                                                  !- Minimum Value of x
  100.0,                                                   !- Maximum Value of x
  -100.0,                                                  !- Minimum Value of y
  100.0,                                                   !- Maximum Value of y
  -100.0,                                                  !- Minimum Value of z
  100.0;                                                   !- Maximum Value of z
! Part Load Fraction Curve for water-to-air heat pump

Curve:Quadratic,
  1F_Gym WAHP ClgPLFCurve,                                 !- Name
  0.85,                                                    !- Coefficient1 Constant
  0.15,                                                    !- Coefficient2 x
  0.0,                                                     !- Coefficient3 x**2
  0.0,                                                     !- Minimum Value of x
  1.0;                                                     !- Maximum Value of x
! Performance coefficients assume rated Capacity and COP are at:
! 21.11C (70F) entering air dry-bulb temperature and 21.11C (70F) entering water temperature

Coil:Heating:WaterToAirHeatPump:EquationFit,
  1F_Gym WAHP Heating Coil,                                !- Name
  ,                                                        !- Availability Schedule Name
  1F_Gym WAHP Heating Water Inlet Node,                    !- Water Inlet Node Name
  1F_Gym WAHP Heating Water Outlet Node,                   !- Water Outlet Node Name
  1F_Gym WAHP Cooling Coil Outlet,                         !- Air Inlet Node Name
  1F_Gym WAHP Heating Coil Outlet,                         !- Air Outlet Node Name
  Autosize,                                                !- Rated Air Flow Rate {m3/s}
  Autosize,                                                !- Rated Water Flow Rate {m3/s}
  Autosize,                                                !- Rated Heating Capacity {W}
  4.5,                                                     !- Rated Heating Coefficient of Performance
  20.0,                                                    !- Rated Entering Water Temperature
  20.0,                                                    !- Rated Entering Air Dry-Bulb Temperature
  1.0,                                                     !- Ratio of Rated Heating Capacity to Rated Cooling Capacity
  1F_Gym WAHP HtgCapCurve,                                 !- Heating Capacity Curve Name
  1F_Gym WAHP HtgPowCurve,                                 !- Heating Power Consumption Curve Name
  1F_Gym WAHP HtgPLFCurve;                                 !- Part Load Fraction Correlation Curve Name

Curve:QuadLinear,
! Heating Capacity Function Curve for water-to-air heat pump
  1F_Gym WAHP HtgCapCurve,                                 !- Name
  -1.30782327125798,                                       !- Coefficient1 Constant
  -2.37467612404102,                                       !- Coefficient2 w
  4.00919247797279,                                        !- Coefficient3 x
  0.615580752610271,                                       !- Coefficient4 y
  0.0,                                                     !- Coefficient5 z
  -100.0,                                                  !- Minimum Value of w
  100.0,                                                   !- Maximum Value of w
  -100.0,                                                  !- Minimum Value of x
  100.0,                                                   !- Maximum Value of x
  -100.0,                                                  !- Minimum Value of y
  100.0,                                                   !- Maximum Value of y
  -100.0,                                                  !- Minimum Value of z
  100.0;                                                   !- Maximum Value of z

Curve:QuadLinear,
! Heating Power Consumption Function Curve for water-to-air heat pump
  1F_Gym WAHP HtgPowCurve,                                 !- Name
  -2.17352461285805,                                       !- Coefficient1 Constant
  0.830808361346509,                                       !- Coefficient2 w
  1.5682782658283,                                         !- Coefficient3 x
  0.689709515714146,                                       !- Coefficient4 y
  0.0,                                                     !- Coefficient5 z
  -100.0,                                                  !- Minimum Value of w
  100.0,                                                   !- Maximum Value of w
  -100.0,                                                  !- Minimum Value of x
  100.0,                                                   !- Maximum Value of x
  -100.0,                                                  !- Minimum Value of y
  100.0,                                                   !- Maximum Value of y
  -100.0,                                                  !- Minimum Value of z
  100.0;                                                   !- Maximum Value of z
! Part Load Fraction Curve for water-to-air heat pump

Curve:Quadratic,
  1F_Gym WAHP HtgPLFCurve,                                 !- Name
  0.85,                                                    !- Coefficient1 Constant
  0.15,                                                    !- Coefficient2 x
  0.0,                                                     !- Coefficient3 x**2
  0.0,                                                     !- Minimum Value of x
  1.0;                                                     !- Maximum Value of x

Coil:Heating:Electric,
  1F_Gym WAHP Supp Heating Coil,                           !- Name
  ,                                                        !- Availability Schedule Name
  1,                                                       !- Efficiency
  0,                                                       !- Nominal Capacity of the Coil {W}
  1F_Gym WAHP Supply Fan Outlet,                           !- Air Inlet Node Name
  1F_Gym WAHP Supply Inlet,                                !- Air Outlet Node Name
  ;                                                        !- Coil Temp Setpoint Node

Branch,
  1F_Gym Cooling Condenser Branch,                         !- Name
  ,                                                        !- Pressure Drop Curve Name
  Coil:Cooling:WaterToAirHeatPump:EquationFit,             !- Component Object Type
  1F_Gym WAHP Cooling Coil,                                !- Component Name
  1F_Gym WAHP Cooling Water Inlet Node,                    !- Component Inlet Node Name
  1F_Gym WAHP Cooling Water Outlet Node;                   !- Component Outlet Node Name

Branch,
  1F_Gym Heating Condenser Branch,                         !- Name
  ,                                                        !- Pressure Drop Curve Name
  Coil:Heating:WaterToAirHeatPump:EquationFit,             !- Component Object Type
  1F_Gym WAHP Heating Coil,                                !- Component Name
  1F_Gym WAHP Heating Water Inlet Node,                    !- Component Inlet Node Name
  1F_Gym WAHP Heating Water Outlet Node;                   !- Component Outlet Node Name

ZoneControl:Thermostat,
  1F_Area_A Thermostat,                                    !- Name
  1F_Area_A,                                               !- Zone or ZoneList Name
  HVACTemplate-Always 4,                                   !- Control Type Schedule Name
  ThermostatSetpoint:DualSetpoint,                         !- Control Object Type
  Lakeside_AllZones_Tstat Dual SP Control;                 !- Control Name

DesignSpecification:OutdoorAir,
  SZ DSOA 1F_Area_A,                                       !- Name
  Flow/Person,                                             !- Outdoor Air Method
  0.00944,                                                 !- Outdoor Air Flow per Person {m3/s}
  0.0,                                                     !- Outdoor Air Flow per Zone Floor Area {m3/s-m2}
  0.0;                                                     !- Outdoor Air Flow per Zone {m3/s}

Sizing:Zone,
  1F_Area_A,                                               !- Zone or ZoneList Name
  SupplyAirTemperature,                                    !- Zone Cooling Design Supply Air Temperature Input Method
  14.0,                                                    !- Zone Cooling Design Supply Air Temperature {C}
  11.11,                                                   !- Zone Cooling Design Supply Air Temperature Difference {delta C}
  SupplyAirTemperature,                                    !- Zone Heating Design Supply Air Temperature Input Method
  50.0,                                                    !- Zone Heating Design Supply Air Temperature {C}
  ,                                                        !- Zone Heating Design Supply Air Temperature Difference {delta C}
  0.008,                                                   !- Zone Cooling Design Supply Air Humidity Ratio {kg-H20/kg-air}
  0.008,                                                   !- Zone Heating Design Supply Air Humidity Ratio {kg-H2O/kg-air}
  SZ DSOA 1F_Area_A,                                       !- Design Specification Outdoor Air Object Name
  ,                                                        !- Zone Heating Sizing Factor
  ,                                                        !- Zone Cooling Sizing Factor
  DesignDay,                                               !- Cooling Design Air Flow Method
  0,                                                       !- Cooling Design Air Flow Rate {m3/s}
  ,                                                        !- Cooling Minimum Air Flow per Zone Floor Area {m3/s-m2}
  ,                                                        !- Cooling Minimum Air Flow {m3/s}
  0,                                                       !- Cooling Minimum Air Flow Fraction {}
  DesignDay,                                               !- Heating Design Air Flow Method
  0,                                                       !- Heating Design Air Flow Rate {m3/s}
  ,                                                        !- Heating Maximum Air Flow per Zone Floor Area {m3/s-m2}
  ,                                                        !- Heating Maximum Air Flow {m3/s}
  0,                                                       !- Heating Maximum Air Flow Fraction {}
  SZ DSZAD 1F_Area_A;                                      !- Design Specification Zone Air Distribution Object Name

DesignSpecification:ZoneAirDistribution,
  SZ DSZAD 1F_Area_A,                                      !- Name
  1,                                                       !- Zone Air Distribution Effectiveness in Cooling Mode {}
  1;                                                       !- Zone Air Distribution Effectiveness in Heating Mode {}

ZoneHVAC:EquipmentConnections,
  1F_Area_A,                                               !- Zone Name
  1F_Area_A Equipment,                                     !- Zone Conditioning Equipment List Name
  1F_Area_A WAHP Supply Inlet,                             !- Zone Air Inlet Node or NodeList Name
  1F_Area_A WAHP Return,                                   !- Zone Air Exhaust Node or NodeList Name
  1F_Area_A Zone Air Node,                                 !- Zone Air Node Name
  1F_Area_A Return Outlet;                                 !- Zone Return Air Node Name

ZoneHVAC:EquipmentList,
  1F_Area_A Equipment,                                     !- Name
  SequentialLoad,                                          !- Load Distribution Scheme
  ZoneHVAC:WaterToAirHeatPump,                             !- Zone Equipment Object Type
  1F_Area_A WAHP,                                          !- Zone Equipment Name
  1,                                                       !- Zone Equipment Cooling Sequence
  1,                                                       !- Zone Equipment Heating or No-Load Sequence
  ,                                                        !- Zone Equipment Sequential Cooling Fraction Schedule Name
  ;                                                        !- Zone Equipment Sequential Heating Fraction Schedule Name
! Set heat pump outdoor air to zero, because zone is served by dedicated outdoor air system (DOAS)

ZoneHVAC:WaterToAirHeatPump,
  1F_Area_A WAHP,                                          !- Name
  ,                                                        !- Availability Schedule Name
  1F_Area_A WAHP Return,                                   !- Air Inlet Node Name
  1F_Area_A WAHP Supply Inlet,                             !- Air Outlet Node Name
  OutdoorAir:Mixer,                                        !- Outdoor Air Mixer Object Type
  1F_Area_A WAHP OA Mixing Box,                            !- Outdoor Air Mixer Name
  autosize,                                                !- Cooling Supply Air Flow Rate {m3/s}
  autosize,                                                !- Heating Supply Air Flow Rate {m3/s}
  ,                                                        !- No Load Supply Air Flow Rate {m3/s}
  ,                                                        !- No Load Supply Air Flow Rate Control Set To Low Speed
  autosize,                                                !- Cooling Outdoor Air Flow Rate {m3/s}
  autosize,                                                !- Heating Outdoor Air Flow Rate {m3/s}
  autosize,                                                !- No Load Outdoor Air Flow Rate {m3/s}
  Fan:OnOff,                                               !- Supply Air Fan Object Type
  1F_Area_A WAHP Supply Fan,                               !- Supply Air Fan Name
  Coil:Heating:WaterToAirHeatPump:EquationFit,             !- Heating Coil Object Type
  1F_Area_A WAHP Heating Coil,                             !- Heating Coil Name
  Coil:Cooling:WaterToAirHeatPump:EquationFit,             !- Cooling Coil Object Type
  1F_Area_A WAHP Cooling Coil,                             !- Cooling Coil Name
  Coil:Heating:Electric,                                   !- Supplemental Heating Coil Object Type
  1F_Area_A WAHP Supp Heating Coil,                        !- Supplemental Heating Coil Name
  autosize,                                                !- Maximum Supply Air Temperature from Supplemental Heater {C}
  20.0,                                                    !- Maximum Outdoor Dry-Bulb Temperature for Supplemental Heater Operation {C}
  1F_Area_A WAHP Outside Air Inlet,                        !- Outdoor Dry-Bulb Temperature Sensor Node Name
  DrawThrough,                                             !- Fan Placement
  HVACTemplate-Always 0,                                   !- Supply Air Fan Operating Mode Schedule Name
  ,                                                        !- Availability Manager List Name
  Cycling;                                                 !- Heat Pump Coil Water Flow Mode

Fan:OnOff,
  1F_Area_A WAHP Supply Fan,                               !- Name
  HVACTemplate-Always 1,                                   !- Availability Schedule Name
  0.7,                                                     !- Fan Efficiency
  75,                                                      !- Pressure Rise {Pa}
  autosize,                                                !- Maximum Flow Rate {m3/s}
  0.9,                                                     !- Motor Efficiency
  1,                                                       !- Motor in Airstream Fraction
  1F_Area_A WAHP Heating Coil Outlet,                      !- Air Inlet Node Name
  1F_Area_A WAHP Supply Fan Outlet;                        !- Air Outlet Node Name

OutdoorAir:Mixer,
  1F_Area_A WAHP OA Mixing Box,                            !- Name
  1F_Area_A WAHP Mixed Air Outlet,                         !- Mixed Air Node Name
  1F_Area_A WAHP Outside Air Inlet,                        !- Outside Air Stream Node Name
  1F_Area_A WAHP Relief Air Outlet,                        !- Relief Air Stream Node Name
  1F_Area_A WAHP Return;                                   !- Return Air Stream Node Name

OutdoorAir:Node,
  1F_Area_A WAHP Outside Air Inlet,                        !- Name
  -1;                                                      !- Height Above Ground
! Performance coefficients assume rated Capacities and COP are at:
! 26.7C (80F) entering air dry-bulb temperature, 19.4C (67F) entering air wet-bulb temperature
! and 29.4C (85F) entering water temperature

Coil:Cooling:WaterToAirHeatPump:EquationFit,
  1F_Area_A WAHP Cooling Coil,                             !- Name
  ,                                                        !- Availability Schedule Name
  1F_Area_A WAHP Cooling Water Inlet Node,                 !- Water Inlet Node Name
  1F_Area_A WAHP Cooling Water Outlet Node,                !- Water Outlet Node Name
  1F_Area_A WAHP Mixed Air Outlet,                         !- Air Inlet Node Name
  1F_Area_A WAHP Cooling Coil Outlet,                      !- Air Outlet Node Name
  Autosize,                                                !- Rated Air Flow Rate {m3/s}
  Autosize,                                                !- Rated Water Flow Rate {m3/s}
  Autosize,                                                !- Rated Total Cooling Capacity {W}
  Autosize,                                                !- Rated Sensible Cooling Capacity {W}
  4.8,                                                     !- Rated Cooling Coefficient of Performance
  30.0,                                                    !- Rated Entering Water Temperature
  27.0,                                                    !- Rated Entering Air Dry-Bulb Temperature
  19.0,                                                    !- Rated Entering Air Wet-Bulb Temperature
  1F_Area_A WAHP ClgTotCapCurve,                           !- Total Cooling Capacity Curve Name
  1F_Area_A WAHP ClgSensCapCurve,                          !- Sensible Cooling Capacity Curve Name
  1F_Area_A WAHP ClgPowCurve,                              !- Cooling Power Consumption Curve Name
  1F_Area_A WAHP ClgPLFCurve,                              !- Part Load Fraction Correlation Curve Name
  0,                                                       !- Nominal Time for Condensate Removal to Begin {s}
  0,                                                       !- Ratio of Initial Moisture Evaporation Rate and Steady State Latent Capacity {dimensionless}
  2.5,                                                     !- Maximum Cycling Rate {cycles/hr}
  60,                                                      !- Latent Capacity Time Constant {s}
  60;                                                      !- Fan Delay Time {s}

Curve:QuadLinear,
! Total Cooling Capacity Function Curve for water-to-air heat pump
  1F_Area_A WAHP ClgTotCapCurve,                           !- Name
  -9.32564313298629,                                       !- Coefficient1 Constant
  11.088084240584,                                         !- Coefficient2 w
  -1.75195196204063,                                       !- Coefficient3 x
  0.760820340847872,                                       !- Coefficient4 y
  0.0,                                                     !- Coefficient5 z
  -100.0,                                                  !- Minimum Value of w
  100.0,                                                   !- Maximum Value of w
  -100.0,                                                  !- Minimum Value of x
  100.0,                                                   !- Maximum Value of x
  -100.0,                                                  !- Minimum Value of y
  100.0,                                                   !- Maximum Value of y
  -100.0,                                                  !- Minimum Value of z
  100.0;                                                   !- Maximum Value of z

Curve:QuintLinear,
! Sensible Cooling Capacity Function Curve for water-to-air heat pump
  1F_Area_A WAHP ClgSensCapCurve,                          !- Name
  -5.26562830117273,                                       !- Coefficient1 Constant
  17.3118017582604,                                        !- Coefficient2 v
  -11.4496890368762,                                       !- Coefficient3 w
  -0.944804890543481,                                      !- Coefficient4 x
  0.739606605780884,                                       !- Coefficient5 y
  0.0,                                                     !- Coefficient6 z
  -100.0,                                                  !- Minimum Value of v
  100.0,                                                   !- Maximum Value of v
  -100.0,                                                  !- Minimum Value of w
  100.0,                                                   !- Maximum Value of w
  -100.0,                                                  !- Minimum Value of x
  100.0,                                                   !- Maximum Value of x
  -100.0,                                                  !- Minimum Value of y
  100.0,                                                   !- Maximum Value of y
  -100.0,                                                  !- Minimum Value of z
  100.0;                                                   !- Maximum Value of z

Curve:QuadLinear,
! Cooling Power Consumption Function Curve for water-to-air heat pump
  1F_Area_A WAHP ClgPowCurve,                              !- Name
  -3.25323327026219,                                       !- Coefficient1 Constant
  -0.990977022339372,                                      !- Coefficient2 w
  4.03828937789764,                                        !- Coefficient3 x
  0.952179101682919,                                       !- Coefficient4 y
  0.0,                                                     !- Coefficient5 z
  -100.0,                                                  !- Minimum Value of w
  100.0,                                                   !- Maximum Value of w
  -100.0,                                                  !- Minimum Value of x
  100.0,                                                   !- Maximum Value of x
  -100.0,                                                  !- Minimum Value of y
  100.0,                                                   !- Maximum Value of y
  -100.0,                                                  !- Minimum Value of z
  100.0;                                                   !- Maximum Value of z
! Part Load Fraction Curve for water-to-air heat pump

Curve:Quadratic,
  1F_Area_A WAHP ClgPLFCurve,                              !- Name
  0.85,                                                    !- Coefficient1 Constant
  0.15,                                                    !- Coefficient2 x
  0.0,                                                     !- Coefficient3 x**2
  0.0,                                                     !- Minimum Value of x
  1.0;                                                     !- Maximum Value of x
! Performance coefficients assume rated Capacity and COP are at:
! 21.11C (70F) entering air dry-bulb temperature and 21.11C (70F) entering water temperature

Coil:Heating:WaterToAirHeatPump:EquationFit,
  1F_Area_A WAHP Heating Coil,                             !- Name
  ,                                                        !- Availability Schedule Name
  1F_Area_A WAHP Heating Water Inlet Node,                 !- Water Inlet Node Name
  1F_Area_A WAHP Heating Water Outlet Node,                !- Water Outlet Node Name
  1F_Area_A WAHP Cooling Coil Outlet,                      !- Air Inlet Node Name
  1F_Area_A WAHP Heating Coil Outlet,                      !- Air Outlet Node Name
  Autosize,                                                !- Rated Air Flow Rate {m3/s}
  Autosize,                                                !- Rated Water Flow Rate {m3/s}
  Autosize,                                                !- Rated Heating Capacity {W}
  4.5,                                                     !- Rated Heating Coefficient of Performance
  20.0,                                                    !- Rated Entering Water Temperature
  20.0,                                                    !- Rated Entering Air Dry-Bulb Temperature
  1.0,                                                     !- Ratio of Rated Heating Capacity to Rated Cooling Capacity
  1F_Area_A WAHP HtgCapCurve,                              !- Heating Capacity Curve Name
  1F_Area_A WAHP HtgPowCurve,                              !- Heating Power Consumption Curve Name
  1F_Area_A WAHP HtgPLFCurve;                              !- Part Load Fraction Correlation Curve Name

Curve:QuadLinear,
! Heating Capacity Function Curve for water-to-air heat pump
  1F_Area_A WAHP HtgCapCurve,                              !- Name
  -1.30782327125798,                                       !- Coefficient1 Constant
  -2.37467612404102,                                       !- Coefficient2 w
  4.00919247797279,                                        !- Coefficient3 x
  0.615580752610271,                                       !- Coefficient4 y
  0.0,                                                     !- Coefficient5 z
  -100.0,                                                  !- Minimum Value of w
  100.0,                                                   !- Maximum Value of w
  -100.0,                                                  !- Minimum Value of x
  100.0,                                                   !- Maximum Value of x
  -100.0,                                                  !- Minimum Value of y
  100.0,                                                   !- Maximum Value of y
  -100.0,                                                  !- Minimum Value of z
  100.0;                                                   !- Maximum Value of z

Curve:QuadLinear,
! Heating Power Consumption Function Curve for water-to-air heat pump
  1F_Area_A WAHP HtgPowCurve,                              !- Name
  -2.17352461285805,                                       !- Coefficient1 Constant
  0.830808361346509,                                       !- Coefficient2 w
  1.5682782658283,                                         !- Coefficient3 x
  0.689709515714146,                                       !- Coefficient4 y
  0.0,                                                     !- Coefficient5 z
  -100.0,                                                  !- Minimum Value of w
  100.0,                                                   !- Maximum Value of w
  -100.0,                                                  !- Minimum Value of x
  100.0,                                                   !- Maximum Value of x
  -100.0,                                                  !- Minimum Value of y
  100.0,                                                   !- Maximum Value of y
  -100.0,                                                  !- Minimum Value of z
  100.0;                                                   !- Maximum Value of z
! Part Load Fraction Curve for water-to-air heat pump

Curve:Quadratic,
  1F_Area_A WAHP HtgPLFCurve,                              !- Name
  0.85,                                                    !- Coefficient1 Constant
  0.15,                                                    !- Coefficient2 x
  0.0,                                                     !- Coefficient3 x**2
  0.0,                                                     !- Minimum Value of x
  1.0;                                                     !- Maximum Value of x

Coil:Heating:Electric,
  1F_Area_A WAHP Supp Heating Coil,                        !- Name
  ,                                                        !- Availability Schedule Name
  1,                                                       !- Efficiency
  0,                                                       !- Nominal Capacity of the Coil {W}
  1F_Area_A WAHP Supply Fan Outlet,                        !- Air Inlet Node Name
  1F_Area_A WAHP Supply Inlet,                             !- Air Outlet Node Name
  ;                                                        !- Coil Temp Setpoint Node

Branch,
  1F_Area_A Cooling Condenser Branch,                      !- Name
  ,                                                        !- Pressure Drop Curve Name
  Coil:Cooling:WaterToAirHeatPump:EquationFit,             !- Component Object Type
  1F_Area_A WAHP Cooling Coil,                             !- Component Name
  1F_Area_A WAHP Cooling Water Inlet Node,                 !- Component Inlet Node Name
  1F_Area_A WAHP Cooling Water Outlet Node;                !- Component Outlet Node Name

Branch,
  1F_Area_A Heating Condenser Branch,                      !- Name
  ,                                                        !- Pressure Drop Curve Name
  Coil:Heating:WaterToAirHeatPump:EquationFit,             !- Component Object Type
  1F_Area_A WAHP Heating Coil,                             !- Component Name
  1F_Area_A WAHP Heating Water Inlet Node,                 !- Component Inlet Node Name
  1F_Area_A WAHP Heating Water Outlet Node;                !- Component Outlet Node Name

ZoneControl:Thermostat,
  1F_Area_B Thermostat,                                    !- Name
  1F_Area_B,                                               !- Zone or ZoneList Name
  HVACTemplate-Always 4,                                   !- Control Type Schedule Name
  ThermostatSetpoint:DualSetpoint,                         !- Control Object Type
  Lakeside_AllZones_Tstat Dual SP Control;                 !- Control Name

DesignSpecification:OutdoorAir,
  SZ DSOA 1F_Area_B,                                       !- Name
  Flow/Person,                                             !- Outdoor Air Method
  0.00944,                                                 !- Outdoor Air Flow per Person {m3/s}
  0.0,                                                     !- Outdoor Air Flow per Zone Floor Area {m3/s-m2}
  0.0;                                                     !- Outdoor Air Flow per Zone {m3/s}

Sizing:Zone,
  1F_Area_B,                                               !- Zone or ZoneList Name
  SupplyAirTemperature,                                    !- Zone Cooling Design Supply Air Temperature Input Method
  14.0,                                                    !- Zone Cooling Design Supply Air Temperature {C}
  11.11,                                                   !- Zone Cooling Design Supply Air Temperature Difference {delta C}
  SupplyAirTemperature,                                    !- Zone Heating Design Supply Air Temperature Input Method
  50.0,                                                    !- Zone Heating Design Supply Air Temperature {C}
  ,                                                        !- Zone Heating Design Supply Air Temperature Difference {delta C}
  0.008,                                                   !- Zone Cooling Design Supply Air Humidity Ratio {kg-H20/kg-air}
  0.008,                                                   !- Zone Heating Design Supply Air Humidity Ratio {kg-H2O/kg-air}
  SZ DSOA 1F_Area_B,                                       !- Design Specification Outdoor Air Object Name
  ,                                                        !- Zone Heating Sizing Factor
  ,                                                        !- Zone Cooling Sizing Factor
  DesignDay,                                               !- Cooling Design Air Flow Method
  0,                                                       !- Cooling Design Air Flow Rate {m3/s}
  ,                                                        !- Cooling Minimum Air Flow per Zone Floor Area {m3/s-m2}
  ,                                                        !- Cooling Minimum Air Flow {m3/s}
  0,                                                       !- Cooling Minimum Air Flow Fraction {}
  DesignDay,                                               !- Heating Design Air Flow Method
  0,                                                       !- Heating Design Air Flow Rate {m3/s}
  ,                                                        !- Heating Maximum Air Flow per Zone Floor Area {m3/s-m2}
  ,                                                        !- Heating Maximum Air Flow {m3/s}
  0,                                                       !- Heating Maximum Air Flow Fraction {}
  SZ DSZAD 1F_Area_B;                                      !- Design Specification Zone Air Distribution Object Name

DesignSpecification:ZoneAirDistribution,
  SZ DSZAD 1F_Area_B,                                      !- Name
  1,                                                       !- Zone Air Distribution Effectiveness in Cooling Mode {}
  1;                                                       !- Zone Air Distribution Effectiveness in Heating Mode {}

ZoneHVAC:EquipmentConnections,
  1F_Area_B,                                               !- Zone Name
  1F_Area_B Equipment,                                     !- Zone Conditioning Equipment List Name
  1F_Area_B WAHP Supply Inlet,                             !- Zone Air Inlet Node or NodeList Name
  1F_Area_B WAHP Return,                                   !- Zone Air Exhaust Node or NodeList Name
  1F_Area_B Zone Air Node,                                 !- Zone Air Node Name
  1F_Area_B Return Outlet;                                 !- Zone Return Air Node Name

ZoneHVAC:EquipmentList,
  1F_Area_B Equipment,                                     !- Name
  SequentialLoad,                                          !- Load Distribution Scheme
  ZoneHVAC:WaterToAirHeatPump,                             !- Zone Equipment Object Type
  1F_Area_B WAHP,                                          !- Zone Equipment Name
  1,                                                       !- Zone Equipment Cooling Sequence
  1,                                                       !- Zone Equipment Heating or No-Load Sequence
  ,                                                        !- Zone Equipment Sequential Cooling Fraction Schedule Name
  ;                                                        !- Zone Equipment Sequential Heating Fraction Schedule Name
! Set heat pump outdoor air to zero, because zone is served by dedicated outdoor air system (DOAS)

ZoneHVAC:WaterToAirHeatPump,
  1F_Area_B WAHP,                                          !- Name
  ,                                                        !- Availability Schedule Name
  1F_Area_B WAHP Return,                                   !- Air Inlet Node Name
  1F_Area_B WAHP Supply Inlet,                             !- Air Outlet Node Name
  OutdoorAir:Mixer,                                        !- Outdoor Air Mixer Object Type
  1F_Area_B WAHP OA Mixing Box,                            !- Outdoor Air Mixer Name
  autosize,                                                !- Cooling Supply Air Flow Rate {m3/s}
  autosize,                                                !- Heating Supply Air Flow Rate {m3/s}
  ,                                                        !- No Load Supply Air Flow Rate {m3/s}
  ,                                                        !- No Load Supply Air Flow Rate Control Set To Low Speed
  autosize,                                                !- Cooling Outdoor Air Flow Rate {m3/s}
  autosize,                                                !- Heating Outdoor Air Flow Rate {m3/s}
  autosize,                                                !- No Load Outdoor Air Flow Rate {m3/s}
  Fan:OnOff,                                               !- Supply Air Fan Object Type
  1F_Area_B WAHP Supply Fan,                               !- Supply Air Fan Name
  Coil:Heating:WaterToAirHeatPump:EquationFit,             !- Heating Coil Object Type
  1F_Area_B WAHP Heating Coil,                             !- Heating Coil Name
  Coil:Cooling:WaterToAirHeatPump:EquationFit,             !- Cooling Coil Object Type
  1F_Area_B WAHP Cooling Coil,                             !- Cooling Coil Name
  Coil:Heating:Electric,                                   !- Supplemental Heating Coil Object Type
  1F_Area_B WAHP Supp Heating Coil,                        !- Supplemental Heating Coil Name
  autosize,                                                !- Maximum Supply Air Temperature from Supplemental Heater {C}
  20.0,                                                    !- Maximum Outdoor Dry-Bulb Temperature for Supplemental Heater Operation {C}
  1F_Area_B WAHP Outside Air Inlet,                        !- Outdoor Dry-Bulb Temperature Sensor Node Name
  DrawThrough,                                             !- Fan Placement
  HVACTemplate-Always 0,                                   !- Supply Air Fan Operating Mode Schedule Name
  ,                                                        !- Availability Manager List Name
  Cycling;                                                 !- Heat Pump Coil Water Flow Mode

Fan:OnOff,
  1F_Area_B WAHP Supply Fan,                               !- Name
  HVACTemplate-Always 1,                                   !- Availability Schedule Name
  0.7,                                                     !- Fan Efficiency
  75,                                                      !- Pressure Rise {Pa}
  autosize,                                                !- Maximum Flow Rate {m3/s}
  0.9,                                                     !- Motor Efficiency
  1,                                                       !- Motor in Airstream Fraction
  1F_Area_B WAHP Heating Coil Outlet,                      !- Air Inlet Node Name
  1F_Area_B WAHP Supply Fan Outlet;                        !- Air Outlet Node Name

OutdoorAir:Mixer,
  1F_Area_B WAHP OA Mixing Box,                            !- Name
  1F_Area_B WAHP Mixed Air Outlet,                         !- Mixed Air Node Name
  1F_Area_B WAHP Outside Air Inlet,                        !- Outside Air Stream Node Name
  1F_Area_B WAHP Relief Air Outlet,                        !- Relief Air Stream Node Name
  1F_Area_B WAHP Return;                                   !- Return Air Stream Node Name

OutdoorAir:Node,
  1F_Area_B WAHP Outside Air Inlet,                        !- Name
  -1;                                                      !- Height Above Ground
! Performance coefficients assume rated Capacities and COP are at:
! 26.7C (80F) entering air dry-bulb temperature, 19.4C (67F) entering air wet-bulb temperature
! and 29.4C (85F) entering water temperature

Coil:Cooling:WaterToAirHeatPump:EquationFit,
  1F_Area_B WAHP Cooling Coil,                             !- Name
  ,                                                        !- Availability Schedule Name
  1F_Area_B WAHP Cooling Water Inlet Node,                 !- Water Inlet Node Name
  1F_Area_B WAHP Cooling Water Outlet Node,                !- Water Outlet Node Name
  1F_Area_B WAHP Mixed Air Outlet,                         !- Air Inlet Node Name
  1F_Area_B WAHP Cooling Coil Outlet,                      !- Air Outlet Node Name
  Autosize,                                                !- Rated Air Flow Rate {m3/s}
  Autosize,                                                !- Rated Water Flow Rate {m3/s}
  Autosize,                                                !- Rated Total Cooling Capacity {W}
  Autosize,                                                !- Rated Sensible Cooling Capacity {W}
  4.8,                                                     !- Rated Cooling Coefficient of Performance
  30.0,                                                    !- Rated Entering Water Temperature
  27.0,                                                    !- Rated Entering Air Dry-Bulb Temperature
  19.0,                                                    !- Rated Entering Air Wet-Bulb Temperature
  1F_Area_B WAHP ClgTotCapCurve,                           !- Total Cooling Capacity Curve Name
  1F_Area_B WAHP ClgSensCapCurve,                          !- Sensible Cooling Capacity Curve Name
  1F_Area_B WAHP ClgPowCurve,                              !- Cooling Power Consumption Curve Name
  1F_Area_B WAHP ClgPLFCurve,                              !- Part Load Fraction Correlation Curve Name
  0,                                                       !- Nominal Time for Condensate Removal to Begin {s}
  0,                                                       !- Ratio of Initial Moisture Evaporation Rate and Steady State Latent Capacity {dimensionless}
  2.5,                                                     !- Maximum Cycling Rate {cycles/hr}
  60,                                                      !- Latent Capacity Time Constant {s}
  60;                                                      !- Fan Delay Time {s}

Curve:QuadLinear,
! Total Cooling Capacity Function Curve for water-to-air heat pump
  1F_Area_B WAHP ClgTotCapCurve,                           !- Name
  -9.32564313298629,                                       !- Coefficient1 Constant
  11.088084240584,                                         !- Coefficient2 w
  -1.75195196204063,                                       !- Coefficient3 x
  0.760820340847872,                                       !- Coefficient4 y
  0.0,                                                     !- Coefficient5 z
  -100.0,                                                  !- Minimum Value of w
  100.0,                                                   !- Maximum Value of w
  -100.0,                                                  !- Minimum Value of x
  100.0,                                                   !- Maximum Value of x
  -100.0,                                                  !- Minimum Value of y
  100.0,                                                   !- Maximum Value of y
  -100.0,                                                  !- Minimum Value of z
  100.0;                                                   !- Maximum Value of z

Curve:QuintLinear,
! Sensible Cooling Capacity Function Curve for water-to-air heat pump
  1F_Area_B WAHP ClgSensCapCurve,                          !- Name
  -5.26562830117273,                                       !- Coefficient1 Constant
  17.3118017582604,                                        !- Coefficient2 v
  -11.4496890368762,                                       !- Coefficient3 w
  -0.944804890543481,                                      !- Coefficient4 x
  0.739606605780884,                                       !- Coefficient5 y
  0.0,                                                     !- Coefficient6 z
  -100.0,                                                  !- Minimum Value of v
  100.0,                                                   !- Maximum Value of v
  -100.0,                                                  !- Minimum Value of w
  100.0,                                                   !- Maximum Value of w
  -100.0,                                                  !- Minimum Value of x
  100.0,                                                   !- Maximum Value of x
  -100.0,                                                  !- Minimum Value of y
  100.0,                                                   !- Maximum Value of y
  -100.0,                                                  !- Minimum Value of z
  100.0;                                                   !- Maximum Value of z

Curve:QuadLinear,
! Cooling Power Consumption Function Curve for water-to-air heat pump
  1F_Area_B WAHP ClgPowCurve,                              !- Name
  -3.25323327026219,                                       !- Coefficient1 Constant
  -0.990977022339372,                                      !- Coefficient2 w
  4.03828937789764,                                        !- Coefficient3 x
  0.952179101682919,                                       !- Coefficient4 y
  0.0,                                                     !- Coefficient5 z
  -100.0,                                                  !- Minimum Value of w
  100.0,                                                   !- Maximum Value of w
  -100.0,                                                  !- Minimum Value of x
  100.0,                                                   !- Maximum Value of x
  -100.0,                                                  !- Minimum Value of y
  100.0,                                                   !- Maximum Value of y
  -100.0,                                                  !- Minimum Value of z
  100.0;                                                   !- Maximum Value of z
! Part Load Fraction Curve for water-to-air heat pump

Curve:Quadratic,
  1F_Area_B WAHP ClgPLFCurve,                              !- Name
  0.85,                                                    !- Coefficient1 Constant
  0.15,                                                    !- Coefficient2 x
  0.0,                                                     !- Coefficient3 x**2
  0.0,                                                     !- Minimum Value of x
  1.0;                                                     !- Maximum Value of x
! Performance coefficients assume rated Capacity and COP are at:
! 21.11C (70F) entering air dry-bulb temperature and 21.11C (70F) entering water temperature

Coil:Heating:WaterToAirHeatPump:EquationFit,
  1F_Area_B WAHP Heating Coil,                             !- Name
  ,                                                        !- Availability Schedule Name
  1F_Area_B WAHP Heating Water Inlet Node,                 !- Water Inlet Node Name
  1F_Area_B WAHP Heating Water Outlet Node,                !- Water Outlet Node Name
  1F_Area_B WAHP Cooling Coil Outlet,                      !- Air Inlet Node Name
  1F_Area_B WAHP Heating Coil Outlet,                      !- Air Outlet Node Name
  Autosize,                                                !- Rated Air Flow Rate {m3/s}
  Autosize,                                                !- Rated Water Flow Rate {m3/s}
  Autosize,                                                !- Rated Heating Capacity {W}
  4.5,                                                     !- Rated Heating Coefficient of Performance
  20.0,                                                    !- Rated Entering Water Temperature
  20.0,                                                    !- Rated Entering Air Dry-Bulb Temperature
  1.0,                                                     !- Ratio of Rated Heating Capacity to Rated Cooling Capacity
  1F_Area_B WAHP HtgCapCurve,                              !- Heating Capacity Curve Name
  1F_Area_B WAHP HtgPowCurve,                              !- Heating Power Consumption Curve Name
  1F_Area_B WAHP HtgPLFCurve;                              !- Part Load Fraction Correlation Curve Name

Curve:QuadLinear,
! Heating Capacity Function Curve for water-to-air heat pump
  1F_Area_B WAHP HtgCapCurve,                              !- Name
  -1.30782327125798,                                       !- Coefficient1 Constant
  -2.37467612404102,                                       !- Coefficient2 w
  4.00919247797279,                                        !- Coefficient3 x
  0.615580752610271,                                       !- Coefficient4 y
  0.0,                                                     !- Coefficient5 z
  -100.0,                                                  !- Minimum Value of w
  100.0,                                                   !- Maximum Value of w
  -100.0,                                                  !- Minimum Value of x
  100.0,                                                   !- Maximum Value of x
  -100.0,                                                  !- Minimum Value of y
  100.0,                                                   !- Maximum Value of y
  -100.0,                                                  !- Minimum Value of z
  100.0;                                                   !- Maximum Value of z

Curve:QuadLinear,
! Heating Power Consumption Function Curve for water-to-air heat pump
  1F_Area_B WAHP HtgPowCurve,                              !- Name
  -2.17352461285805,                                       !- Coefficient1 Constant
  0.830808361346509,                                       !- Coefficient2 w
  1.5682782658283,                                         !- Coefficient3 x
  0.689709515714146,                                       !- Coefficient4 y
  0.0,                                                     !- Coefficient5 z
  -100.0,                                                  !- Minimum Value of w
  100.0,                                                   !- Maximum Value of w
  -100.0,                                                  !- Minimum Value of x
  100.0,                                                   !- Maximum Value of x
  -100.0,                                                  !- Minimum Value of y
  100.0,                                                   !- Maximum Value of y
  -100.0,                                                  !- Minimum Value of z
  100.0;                                                   !- Maximum Value of z
! Part Load Fraction Curve for water-to-air heat pump

Curve:Quadratic,
  1F_Area_B WAHP HtgPLFCurve,                              !- Name
  0.85,                                                    !- Coefficient1 Constant
  0.15,                                                    !- Coefficient2 x
  0.0,                                                     !- Coefficient3 x**2
  0.0,                                                     !- Minimum Value of x
  1.0;                                                     !- Maximum Value of x

Coil:Heating:Electric,
  1F_Area_B WAHP Supp Heating Coil,                        !- Name
  ,                                                        !- Availability Schedule Name
  1,                                                       !- Efficiency
  0,                                                       !- Nominal Capacity of the Coil {W}
  1F_Area_B WAHP Supply Fan Outlet,                        !- Air Inlet Node Name
  1F_Area_B WAHP Supply Inlet,                             !- Air Outlet Node Name
  ;                                                        !- Coil Temp Setpoint Node

Branch,
  1F_Area_B Cooling Condenser Branch,                      !- Name
  ,                                                        !- Pressure Drop Curve Name
  Coil:Cooling:WaterToAirHeatPump:EquationFit,             !- Component Object Type
  1F_Area_B WAHP Cooling Coil,                             !- Component Name
  1F_Area_B WAHP Cooling Water Inlet Node,                 !- Component Inlet Node Name
  1F_Area_B WAHP Cooling Water Outlet Node;                !- Component Outlet Node Name

Branch,
  1F_Area_B Heating Condenser Branch,                      !- Name
  ,                                                        !- Pressure Drop Curve Name
  Coil:Heating:WaterToAirHeatPump:EquationFit,             !- Component Object Type
  1F_Area_B WAHP Heating Coil,                             !- Component Name
  1F_Area_B WAHP Heating Water Inlet Node,                 !- Component Inlet Node Name
  1F_Area_B WAHP Heating Water Outlet Node;                !- Component Outlet Node Name

ZoneControl:Thermostat,
  1F_Area_C Thermostat,                                    !- Name
  1F_Area_C,                                               !- Zone or ZoneList Name
  HVACTemplate-Always 4,                                   !- Control Type Schedule Name
  ThermostatSetpoint:DualSetpoint,                         !- Control Object Type
  Lakeside_AllZones_Tstat Dual SP Control;                 !- Control Name

DesignSpecification:OutdoorAir,
  SZ DSOA 1F_Area_C,                                       !- Name
  Flow/Person,                                             !- Outdoor Air Method
  0.00944,                                                 !- Outdoor Air Flow per Person {m3/s}
  0.0,                                                     !- Outdoor Air Flow per Zone Floor Area {m3/s-m2}
  0.0;                                                     !- Outdoor Air Flow per Zone {m3/s}

Sizing:Zone,
  1F_Area_C,                                               !- Zone or ZoneList Name
  SupplyAirTemperature,                                    !- Zone Cooling Design Supply Air Temperature Input Method
  14.0,                                                    !- Zone Cooling Design Supply Air Temperature {C}
  11.11,                                                   !- Zone Cooling Design Supply Air Temperature Difference {delta C}
  SupplyAirTemperature,                                    !- Zone Heating Design Supply Air Temperature Input Method
  50.0,                                                    !- Zone Heating Design Supply Air Temperature {C}
  ,                                                        !- Zone Heating Design Supply Air Temperature Difference {delta C}
  0.008,                                                   !- Zone Cooling Design Supply Air Humidity Ratio {kg-H20/kg-air}
  0.008,                                                   !- Zone Heating Design Supply Air Humidity Ratio {kg-H2O/kg-air}
  SZ DSOA 1F_Area_C,                                       !- Design Specification Outdoor Air Object Name
  ,                                                        !- Zone Heating Sizing Factor
  ,                                                        !- Zone Cooling Sizing Factor
  DesignDay,                                               !- Cooling Design Air Flow Method
  0,                                                       !- Cooling Design Air Flow Rate {m3/s}
  ,                                                        !- Cooling Minimum Air Flow per Zone Floor Area {m3/s-m2}
  ,                                                        !- Cooling Minimum Air Flow {m3/s}
  0,                                                       !- Cooling Minimum Air Flow Fraction {}
  DesignDay,                                               !- Heating Design Air Flow Method
  0,                                                       !- Heating Design Air Flow Rate {m3/s}
  ,                                                        !- Heating Maximum Air Flow per Zone Floor Area {m3/s-m2}
  ,                                                        !- Heating Maximum Air Flow {m3/s}
  0,                                                       !- Heating Maximum Air Flow Fraction {}
  SZ DSZAD 1F_Area_C;                                      !- Design Specification Zone Air Distribution Object Name

DesignSpecification:ZoneAirDistribution,
  SZ DSZAD 1F_Area_C,                                      !- Name
  1,                                                       !- Zone Air Distribution Effectiveness in Cooling Mode {}
  1;                                                       !- Zone Air Distribution Effectiveness in Heating Mode {}

ZoneHVAC:EquipmentConnections,
  1F_Area_C,                                               !- Zone Name
  1F_Area_C Equipment,                                     !- Zone Conditioning Equipment List Name
  1F_Area_C WAHP Supply Inlet,                             !- Zone Air Inlet Node or NodeList Name
  1F_Area_C WAHP Return,                                   !- Zone Air Exhaust Node or NodeList Name
  1F_Area_C Zone Air Node,                                 !- Zone Air Node Name
  1F_Area_C Return Outlet;                                 !- Zone Return Air Node Name

ZoneHVAC:EquipmentList,
  1F_Area_C Equipment,                                     !- Name
  SequentialLoad,                                          !- Load Distribution Scheme
  ZoneHVAC:WaterToAirHeatPump,                             !- Zone Equipment Object Type
  1F_Area_C WAHP,                                          !- Zone Equipment Name
  1,                                                       !- Zone Equipment Cooling Sequence
  1,                                                       !- Zone Equipment Heating or No-Load Sequence
  ,                                                        !- Zone Equipment Sequential Cooling Fraction Schedule Name
  ;                                                        !- Zone Equipment Sequential Heating Fraction Schedule Name
! Set heat pump outdoor air to zero, because zone is served by dedicated outdoor air system (DOAS)

ZoneHVAC:WaterToAirHeatPump,
  1F_Area_C WAHP,                                          !- Name
  ,                                                        !- Availability Schedule Name
  1F_Area_C WAHP Return,                                   !- Air Inlet Node Name
  1F_Area_C WAHP Supply Inlet,                             !- Air Outlet Node Name
  OutdoorAir:Mixer,                                        !- Outdoor Air Mixer Object Type
  1F_Area_C WAHP OA Mixing Box,                            !- Outdoor Air Mixer Name
  autosize,                                                !- Cooling Supply Air Flow Rate {m3/s}
  autosize,                                                !- Heating Supply Air Flow Rate {m3/s}
  ,                                                        !- No Load Supply Air Flow Rate {m3/s}
  ,                                                        !- No Load Supply Air Flow Rate Control Set To Low Speed
  autosize,                                                !- Cooling Outdoor Air Flow Rate {m3/s}
  autosize,                                                !- Heating Outdoor Air Flow Rate {m3/s}
  autosize,                                                !- No Load Outdoor Air Flow Rate {m3/s}
  Fan:OnOff,                                               !- Supply Air Fan Object Type
  1F_Area_C WAHP Supply Fan,                               !- Supply Air Fan Name
  Coil:Heating:WaterToAirHeatPump:EquationFit,             !- Heating Coil Object Type
  1F_Area_C WAHP Heating Coil,                             !- Heating Coil Name
  Coil:Cooling:WaterToAirHeatPump:EquationFit,             !- Cooling Coil Object Type
  1F_Area_C WAHP Cooling Coil,                             !- Cooling Coil Name
  Coil:Heating:Electric,                                   !- Supplemental Heating Coil Object Type
  1F_Area_C WAHP Supp Heating Coil,                        !- Supplemental Heating Coil Name
  autosize,                                                !- Maximum Supply Air Temperature from Supplemental Heater {C}
  20.0,                                                    !- Maximum Outdoor Dry-Bulb Temperature for Supplemental Heater Operation {C}
  1F_Area_C WAHP Outside Air Inlet,                        !- Outdoor Dry-Bulb Temperature Sensor Node Name
  DrawThrough,                                             !- Fan Placement
  HVACTemplate-Always 0,                                   !- Supply Air Fan Operating Mode Schedule Name
  ,                                                        !- Availability Manager List Name
  Cycling;                                                 !- Heat Pump Coil Water Flow Mode

Fan:OnOff,
  1F_Area_C WAHP Supply Fan,                               !- Name
  HVACTemplate-Always 1,                                   !- Availability Schedule Name
  0.7,                                                     !- Fan Efficiency
  75,                                                      !- Pressure Rise {Pa}
  autosize,                                                !- Maximum Flow Rate {m3/s}
  0.9,                                                     !- Motor Efficiency
  1,                                                       !- Motor in Airstream Fraction
  1F_Area_C WAHP Heating Coil Outlet,                      !- Air Inlet Node Name
  1F_Area_C WAHP Supply Fan Outlet;                        !- Air Outlet Node Name

OutdoorAir:Mixer,
  1F_Area_C WAHP OA Mixing Box,                            !- Name
  1F_Area_C WAHP Mixed Air Outlet,                         !- Mixed Air Node Name
  1F_Area_C WAHP Outside Air Inlet,                        !- Outside Air Stream Node Name
  1F_Area_C WAHP Relief Air Outlet,                        !- Relief Air Stream Node Name
  1F_Area_C WAHP Return;                                   !- Return Air Stream Node Name

OutdoorAir:Node,
  1F_Area_C WAHP Outside Air Inlet,                        !- Name
  -1;                                                      !- Height Above Ground
! Performance coefficients assume rated Capacities and COP are at:
! 26.7C (80F) entering air dry-bulb temperature, 19.4C (67F) entering air wet-bulb temperature
! and 29.4C (85F) entering water temperature

Coil:Cooling:WaterToAirHeatPump:EquationFit,
  1F_Area_C WAHP Cooling Coil,                             !- Name
  ,                                                        !- Availability Schedule Name
  1F_Area_C WAHP Cooling Water Inlet Node,                 !- Water Inlet Node Name
  1F_Area_C WAHP Cooling Water Outlet Node,                !- Water Outlet Node Name
  1F_Area_C WAHP Mixed Air Outlet,                         !- Air Inlet Node Name
  1F_Area_C WAHP Cooling Coil Outlet,                      !- Air Outlet Node Name
  Autosize,                                                !- Rated Air Flow Rate {m3/s}
  Autosize,                                                !- Rated Water Flow Rate {m3/s}
  Autosize,                                                !- Rated Total Cooling Capacity {W}
  Autosize,                                                !- Rated Sensible Cooling Capacity {W}
  4.8,                                                     !- Rated Cooling Coefficient of Performance
  30.0,                                                    !- Rated Entering Water Temperature
  27.0,                                                    !- Rated Entering Air Dry-Bulb Temperature
  19.0,                                                    !- Rated Entering Air Wet-Bulb Temperature
  1F_Area_C WAHP ClgTotCapCurve,                           !- Total Cooling Capacity Curve Name
  1F_Area_C WAHP ClgSensCapCurve,                          !- Sensible Cooling Capacity Curve Name
  1F_Area_C WAHP ClgPowCurve,                              !- Cooling Power Consumption Curve Name
  1F_Area_C WAHP ClgPLFCurve,                              !- Part Load Fraction Correlation Curve Name
  0,                                                       !- Nominal Time for Condensate Removal to Begin {s}
  0,                                                       !- Ratio of Initial Moisture Evaporation Rate and Steady State Latent Capacity {dimensionless}
  2.5,                                                     !- Maximum Cycling Rate {cycles/hr}
  60,                                                      !- Latent Capacity Time Constant {s}
  60;                                                      !- Fan Delay Time {s}

Curve:QuadLinear,
! Total Cooling Capacity Function Curve for water-to-air heat pump
  1F_Area_C WAHP ClgTotCapCurve,                           !- Name
  -9.32564313298629,                                       !- Coefficient1 Constant
  11.088084240584,                                         !- Coefficient2 w
  -1.75195196204063,                                       !- Coefficient3 x
  0.760820340847872,                                       !- Coefficient4 y
  0.0,                                                     !- Coefficient5 z
  -100.0,                                                  !- Minimum Value of w
  100.0,                                                   !- Maximum Value of w
  -100.0,                                                  !- Minimum Value of x
  100.0,                                                   !- Maximum Value of x
  -100.0,                                                  !- Minimum Value of y
  100.0,                                                   !- Maximum Value of y
  -100.0,                                                  !- Minimum Value of z
  100.0;                                                   !- Maximum Value of z

Curve:QuintLinear,
! Sensible Cooling Capacity Function Curve for water-to-air heat pump
  1F_Area_C WAHP ClgSensCapCurve,                          !- Name
  -5.26562830117273,                                       !- Coefficient1 Constant
  17.3118017582604,                                        !- Coefficient2 v
  -11.4496890368762,                                       !- Coefficient3 w
  -0.944804890543481,                                      !- Coefficient4 x
  0.739606605780884,                                       !- Coefficient5 y
  0.0,                                                     !- Coefficient6 z
  -100.0,                                                  !- Minimum Value of v
  100.0,                                                   !- Maximum Value of v
  -100.0,                                                  !- Minimum Value of w
  100.0,                                                   !- Maximum Value of w
  -100.0,                                                  !- Minimum Value of x
  100.0,                                                   !- Maximum Value of x
  -100.0,                                                  !- Minimum Value of y
  100.0,                                                   !- Maximum Value of y
  -100.0,                                                  !- Minimum Value of z
  100.0;                                                   !- Maximum Value of z

Curve:QuadLinear,
! Cooling Power Consumption Function Curve for water-to-air heat pump
  1F_Area_C WAHP ClgPowCurve,                              !- Name
  -3.25323327026219,                                       !- Coefficient1 Constant
  -0.990977022339372,                                      !- Coefficient2 w
  4.03828937789764,                                        !- Coefficient3 x
  0.952179101682919,                                       !- Coefficient4 y
  0.0,                                                     !- Coefficient5 z
  -100.0,                                                  !- Minimum Value of w
  100.0,                                                   !- Maximum Value of w
  -100.0,                                                  !- Minimum Value of x
  100.0,                                                   !- Maximum Value of x
  -100.0,                                                  !- Minimum Value of y
  100.0,                                                   !- Maximum Value of y
  -100.0,                                                  !- Minimum Value of z
  100.0;                                                   !- Maximum Value of z
! Part Load Fraction Curve for water-to-air heat pump

Curve:Quadratic,
  1F_Area_C WAHP ClgPLFCurve,                              !- Name
  0.85,                                                    !- Coefficient1 Constant
  0.15,                                                    !- Coefficient2 x
  0.0,                                                     !- Coefficient3 x**2
  0.0,                                                     !- Minimum Value of x
  1.0;                                                     !- Maximum Value of x
! Performance coefficients assume rated Capacity and COP are at:
! 21.11C (70F) entering air dry-bulb temperature and 21.11C (70F) entering water temperature

Coil:Heating:WaterToAirHeatPump:EquationFit,
  1F_Area_C WAHP Heating Coil,                             !- Name
  ,                                                        !- Availability Schedule Name
  1F_Area_C WAHP Heating Water Inlet Node,                 !- Water Inlet Node Name
  1F_Area_C WAHP Heating Water Outlet Node,                !- Water Outlet Node Name
  1F_Area_C WAHP Cooling Coil Outlet,                      !- Air Inlet Node Name
  1F_Area_C WAHP Heating Coil Outlet,                      !- Air Outlet Node Name
  Autosize,                                                !- Rated Air Flow Rate {m3/s}
  Autosize,                                                !- Rated Water Flow Rate {m3/s}
  Autosize,                                                !- Rated Heating Capacity {W}
  4.5,                                                     !- Rated Heating Coefficient of Performance
  20.0,                                                    !- Rated Entering Water Temperature
  20.0,                                                    !- Rated Entering Air Dry-Bulb Temperature
  1.0,                                                     !- Ratio of Rated Heating Capacity to Rated Cooling Capacity
  1F_Area_C WAHP HtgCapCurve,                              !- Heating Capacity Curve Name
  1F_Area_C WAHP HtgPowCurve,                              !- Heating Power Consumption Curve Name
  1F_Area_C WAHP HtgPLFCurve;                              !- Part Load Fraction Correlation Curve Name

Curve:QuadLinear,
! Heating Capacity Function Curve for water-to-air heat pump
  1F_Area_C WAHP HtgCapCurve,                              !- Name
  -1.30782327125798,                                       !- Coefficient1 Constant
  -2.37467612404102,                                       !- Coefficient2 w
  4.00919247797279,                                        !- Coefficient3 x
  0.615580752610271,                                       !- Coefficient4 y
  0.0,                                                     !- Coefficient5 z
  -100.0,                                                  !- Minimum Value of w
  100.0,                                                   !- Maximum Value of w
  -100.0,                                                  !- Minimum Value of x
  100.0,                                                   !- Maximum Value of x
  -100.0,                                                  !- Minimum Value of y
  100.0,                                                   !- Maximum Value of y
  -100.0,                                                  !- Minimum Value of z
  100.0;                                                   !- Maximum Value of z

Curve:QuadLinear,
! Heating Power Consumption Function Curve for water-to-air heat pump
  1F_Area_C WAHP HtgPowCurve,                              !- Name
  -2.17352461285805,                                       !- Coefficient1 Constant
  0.830808361346509,                                       !- Coefficient2 w
  1.5682782658283,                                         !- Coefficient3 x
  0.689709515714146,                                       !- Coefficient4 y
  0.0,                                                     !- Coefficient5 z
  -100.0,                                                  !- Minimum Value of w
  100.0,                                                   !- Maximum Value of w
  -100.0,                                                  !- Minimum Value of x
  100.0,                                                   !- Maximum Value of x
  -100.0,                                                  !- Minimum Value of y
  100.0,                                                   !- Maximum Value of y
  -100.0,                                                  !- Minimum Value of z
  100.0;                                                   !- Maximum Value of z
! Part Load Fraction Curve for water-to-air heat pump

Curve:Quadratic,
  1F_Area_C WAHP HtgPLFCurve,                              !- Name
  0.85,                                                    !- Coefficient1 Constant
  0.15,                                                    !- Coefficient2 x
  0.0,                                                     !- Coefficient3 x**2
  0.0,                                                     !- Minimum Value of x
  1.0;                                                     !- Maximum Value of x

Coil:Heating:Electric,
  1F_Area_C WAHP Supp Heating Coil,                        !- Name
  ,                                                        !- Availability Schedule Name
  1,                                                       !- Efficiency
  0,                                                       !- Nominal Capacity of the Coil {W}
  1F_Area_C WAHP Supply Fan Outlet,                        !- Air Inlet Node Name
  1F_Area_C WAHP Supply Inlet,                             !- Air Outlet Node Name
  ;                                                        !- Coil Temp Setpoint Node

Branch,
  1F_Area_C Cooling Condenser Branch,                      !- Name
  ,                                                        !- Pressure Drop Curve Name
  Coil:Cooling:WaterToAirHeatPump:EquationFit,             !- Component Object Type
  1F_Area_C WAHP Cooling Coil,                             !- Component Name
  1F_Area_C WAHP Cooling Water Inlet Node,                 !- Component Inlet Node Name
  1F_Area_C WAHP Cooling Water Outlet Node;                !- Component Outlet Node Name

Branch,
  1F_Area_C Heating Condenser Branch,                      !- Name
  ,                                                        !- Pressure Drop Curve Name
  Coil:Heating:WaterToAirHeatPump:EquationFit,             !- Component Object Type
  1F_Area_C WAHP Heating Coil,                             !- Component Name
  1F_Area_C WAHP Heating Water Inlet Node,                 !- Component Inlet Node Name
  1F_Area_C WAHP Heating Water Outlet Node;                !- Component Outlet Node Name

ZoneControl:Thermostat,
  1F_Area_D Thermostat,                                    !- Name
  1F_Area_D,                                               !- Zone or ZoneList Name
  HVACTemplate-Always 4,                                   !- Control Type Schedule Name
  ThermostatSetpoint:DualSetpoint,                         !- Control Object Type
  Lakeside_AllZones_Tstat Dual SP Control;                 !- Control Name

DesignSpecification:OutdoorAir,
  SZ DSOA 1F_Area_D,                                       !- Name
  Flow/Person,                                             !- Outdoor Air Method
  0.00944,                                                 !- Outdoor Air Flow per Person {m3/s}
  0.0,                                                     !- Outdoor Air Flow per Zone Floor Area {m3/s-m2}
  0.0;                                                     !- Outdoor Air Flow per Zone {m3/s}

Sizing:Zone,
  1F_Area_D,                                               !- Zone or ZoneList Name
  SupplyAirTemperature,                                    !- Zone Cooling Design Supply Air Temperature Input Method
  14.0,                                                    !- Zone Cooling Design Supply Air Temperature {C}
  11.11,                                                   !- Zone Cooling Design Supply Air Temperature Difference {delta C}
  SupplyAirTemperature,                                    !- Zone Heating Design Supply Air Temperature Input Method
  50.0,                                                    !- Zone Heating Design Supply Air Temperature {C}
  ,                                                        !- Zone Heating Design Supply Air Temperature Difference {delta C}
  0.008,                                                   !- Zone Cooling Design Supply Air Humidity Ratio {kg-H20/kg-air}
  0.008,                                                   !- Zone Heating Design Supply Air Humidity Ratio {kg-H2O/kg-air}
  SZ DSOA 1F_Area_D,                                       !- Design Specification Outdoor Air Object Name
  ,                                                        !- Zone Heating Sizing Factor
  ,                                                        !- Zone Cooling Sizing Factor
  DesignDay,                                               !- Cooling Design Air Flow Method
  0,                                                       !- Cooling Design Air Flow Rate {m3/s}
  ,                                                        !- Cooling Minimum Air Flow per Zone Floor Area {m3/s-m2}
  ,                                                        !- Cooling Minimum Air Flow {m3/s}
  0,                                                       !- Cooling Minimum Air Flow Fraction {}
  DesignDay,                                               !- Heating Design Air Flow Method
  0,                                                       !- Heating Design Air Flow Rate {m3/s}
  ,                                                        !- Heating Maximum Air Flow per Zone Floor Area {m3/s-m2}
  ,                                                        !- Heating Maximum Air Flow {m3/s}
  0,                                                       !- Heating Maximum Air Flow Fraction {}
  SZ DSZAD 1F_Area_D;                                      !- Design Specification Zone Air Distribution Object Name

DesignSpecification:ZoneAirDistribution,
  SZ DSZAD 1F_Area_D,                                      !- Name
  1,                                                       !- Zone Air Distribution Effectiveness in Cooling Mode {}
  1;                                                       !- Zone Air Distribution Effectiveness in Heating Mode {}

ZoneHVAC:EquipmentConnections,
  1F_Area_D,                                               !- Zone Name
  1F_Area_D Equipment,                                     !- Zone Conditioning Equipment List Name
  1F_Area_D WAHP Supply Inlet,                             !- Zone Air Inlet Node or NodeList Name
  1F_Area_D WAHP Return,                                   !- Zone Air Exhaust Node or NodeList Name
  1F_Area_D Zone Air Node,                                 !- Zone Air Node Name
  1F_Area_D Return Outlet;                                 !- Zone Return Air Node Name

ZoneHVAC:EquipmentList,
  1F_Area_D Equipment,                                     !- Name
  SequentialLoad,                                          !- Load Distribution Scheme
  ZoneHVAC:WaterToAirHeatPump,                             !- Zone Equipment Object Type
  1F_Area_D WAHP,                                          !- Zone Equipment Name
  1,                                                       !- Zone Equipment Cooling Sequence
  1,                                                       !- Zone Equipment Heating or No-Load Sequence
  ,                                                        !- Zone Equipment Sequential Cooling Fraction Schedule Name
  ;                                                        !- Zone Equipment Sequential Heating Fraction Schedule Name
! Set heat pump outdoor air to zero, because zone is served by dedicated outdoor air system (DOAS)

ZoneHVAC:WaterToAirHeatPump,
  1F_Area_D WAHP,                                          !- Name
  ,                                                        !- Availability Schedule Name
  1F_Area_D WAHP Return,                                   !- Air Inlet Node Name
  1F_Area_D WAHP Supply Inlet,                             !- Air Outlet Node Name
  OutdoorAir:Mixer,                                        !- Outdoor Air Mixer Object Type
  1F_Area_D WAHP OA Mixing Box,                            !- Outdoor Air Mixer Name
  autosize,                                                !- Cooling Supply Air Flow Rate {m3/s}
  autosize,                                                !- Heating Supply Air Flow Rate {m3/s}
  ,                                                        !- No Load Supply Air Flow Rate {m3/s}
  ,                                                        !- No Load Supply Air Flow Rate Control Set To Low Speed
  autosize,                                                !- Cooling Outdoor Air Flow Rate {m3/s}
  autosize,                                                !- Heating Outdoor Air Flow Rate {m3/s}
  autosize,                                                !- No Load Outdoor Air Flow Rate {m3/s}
  Fan:OnOff,                                               !- Supply Air Fan Object Type
  1F_Area_D WAHP Supply Fan,                               !- Supply Air Fan Name
  Coil:Heating:WaterToAirHeatPump:EquationFit,             !- Heating Coil Object Type
  1F_Area_D WAHP Heating Coil,                             !- Heating Coil Name
  Coil:Cooling:WaterToAirHeatPump:EquationFit,             !- Cooling Coil Object Type
  1F_Area_D WAHP Cooling Coil,                             !- Cooling Coil Name
  Coil:Heating:Electric,                                   !- Supplemental Heating Coil Object Type
  1F_Area_D WAHP Supp Heating Coil,                        !- Supplemental Heating Coil Name
  autosize,                                                !- Maximum Supply Air Temperature from Supplemental Heater {C}
  20.0,                                                    !- Maximum Outdoor Dry-Bulb Temperature for Supplemental Heater Operation {C}
  1F_Area_D WAHP Outside Air Inlet,                        !- Outdoor Dry-Bulb Temperature Sensor Node Name
  DrawThrough,                                             !- Fan Placement
  HVACTemplate-Always 0,                                   !- Supply Air Fan Operating Mode Schedule Name
  ,                                                        !- Availability Manager List Name
  Cycling;                                                 !- Heat Pump Coil Water Flow Mode

Fan:OnOff,
  1F_Area_D WAHP Supply Fan,                               !- Name
  HVACTemplate-Always 1,                                   !- Availability Schedule Name
  0.7,                                                     !- Fan Efficiency
  75,                                                      !- Pressure Rise {Pa}
  autosize,                                                !- Maximum Flow Rate {m3/s}
  0.9,                                                     !- Motor Efficiency
  1,                                                       !- Motor in Airstream Fraction
  1F_Area_D WAHP Heating Coil Outlet,                      !- Air Inlet Node Name
  1F_Area_D WAHP Supply Fan Outlet;                        !- Air Outlet Node Name

OutdoorAir:Mixer,
  1F_Area_D WAHP OA Mixing Box,                            !- Name
  1F_Area_D WAHP Mixed Air Outlet,                         !- Mixed Air Node Name
  1F_Area_D WAHP Outside Air Inlet,                        !- Outside Air Stream Node Name
  1F_Area_D WAHP Relief Air Outlet,                        !- Relief Air Stream Node Name
  1F_Area_D WAHP Return;                                   !- Return Air Stream Node Name

OutdoorAir:Node,
  1F_Area_D WAHP Outside Air Inlet,                        !- Name
  -1;                                                      !- Height Above Ground
! Performance coefficients assume rated Capacities and COP are at:
! 26.7C (80F) entering air dry-bulb temperature, 19.4C (67F) entering air wet-bulb temperature
! and 29.4C (85F) entering water temperature

Coil:Cooling:WaterToAirHeatPump:EquationFit,
  1F_Area_D WAHP Cooling Coil,                             !- Name
  ,                                                        !- Availability Schedule Name
  1F_Area_D WAHP Cooling Water Inlet Node,                 !- Water Inlet Node Name
  1F_Area_D WAHP Cooling Water Outlet Node,                !- Water Outlet Node Name
  1F_Area_D WAHP Mixed Air Outlet,                         !- Air Inlet Node Name
  1F_Area_D WAHP Cooling Coil Outlet,                      !- Air Outlet Node Name
  Autosize,                                                !- Rated Air Flow Rate {m3/s}
  Autosize,                                                !- Rated Water Flow Rate {m3/s}
  Autosize,                                                !- Rated Total Cooling Capacity {W}
  Autosize,                                                !- Rated Sensible Cooling Capacity {W}
  4.8,                                                     !- Rated Cooling Coefficient of Performance
  30.0,                                                    !- Rated Entering Water Temperature
  27.0,                                                    !- Rated Entering Air Dry-Bulb Temperature
  19.0,                                                    !- Rated Entering Air Wet-Bulb Temperature
  1F_Area_D WAHP ClgTotCapCurve,                           !- Total Cooling Capacity Curve Name
  1F_Area_D WAHP ClgSensCapCurve,                          !- Sensible Cooling Capacity Curve Name
  1F_Area_D WAHP ClgPowCurve,                              !- Cooling Power Consumption Curve Name
  1F_Area_D WAHP ClgPLFCurve,                              !- Part Load Fraction Correlation Curve Name
  0,                                                       !- Nominal Time for Condensate Removal to Begin {s}
  0,                                                       !- Ratio of Initial Moisture Evaporation Rate and Steady State Latent Capacity {dimensionless}
  2.5,                                                     !- Maximum Cycling Rate {cycles/hr}
  60,                                                      !- Latent Capacity Time Constant {s}
  60;                                                      !- Fan Delay Time {s}

Curve:QuadLinear,
! Total Cooling Capacity Function Curve for water-to-air heat pump
  1F_Area_D WAHP ClgTotCapCurve,                           !- Name
  -9.32564313298629,                                       !- Coefficient1 Constant
  11.088084240584,                                         !- Coefficient2 w
  -1.75195196204063,                                       !- Coefficient3 x
  0.760820340847872,                                       !- Coefficient4 y
  0.0,                                                     !- Coefficient5 z
  -100.0,                                                  !- Minimum Value of w
  100.0,                                                   !- Maximum Value of w
  -100.0,                                                  !- Minimum Value of x
  100.0,                                                   !- Maximum Value of x
  -100.0,                                                  !- Minimum Value of y
  100.0,                                                   !- Maximum Value of y
  -100.0,                                                  !- Minimum Value of z
  100.0;                                                   !- Maximum Value of z

Curve:QuintLinear,
! Sensible Cooling Capacity Function Curve for water-to-air heat pump
  1F_Area_D WAHP ClgSensCapCurve,                          !- Name
  -5.26562830117273,                                       !- Coefficient1 Constant
  17.3118017582604,                                        !- Coefficient2 v
  -11.4496890368762,                                       !- Coefficient3 w
  -0.944804890543481,                                      !- Coefficient4 x
  0.739606605780884,                                       !- Coefficient5 y
  0.0,                                                     !- Coefficient6 z
  -100.0,                                                  !- Minimum Value of v
  100.0,                                                   !- Maximum Value of v
  -100.0,                                                  !- Minimum Value of w
  100.0,                                                   !- Maximum Value of w
  -100.0,                                                  !- Minimum Value of x
  100.0,                                                   !- Maximum Value of x
  -100.0,                                                  !- Minimum Value of y
  100.0,                                                   !- Maximum Value of y
  -100.0,                                                  !- Minimum Value of z
  100.0;                                                   !- Maximum Value of z

Curve:QuadLinear,
! Cooling Power Consumption Function Curve for water-to-air heat pump
  1F_Area_D WAHP ClgPowCurve,                              !- Name
  -3.25323327026219,                                       !- Coefficient1 Constant
  -0.990977022339372,                                      !- Coefficient2 w
  4.03828937789764,                                        !- Coefficient3 x
  0.952179101682919,                                       !- Coefficient4 y
  0.0,                                                     !- Coefficient5 z
  -100.0,                                                  !- Minimum Value of w
  100.0,                                                   !- Maximum Value of w
  -100.0,                                                  !- Minimum Value of x
  100.0,                                                   !- Maximum Value of x
  -100.0,                                                  !- Minimum Value of y
  100.0,                                                   !- Maximum Value of y
  -100.0,                                                  !- Minimum Value of z
  100.0;                                                   !- Maximum Value of z
! Part Load Fraction Curve for water-to-air heat pump

Curve:Quadratic,
  1F_Area_D WAHP ClgPLFCurve,                              !- Name
  0.85,                                                    !- Coefficient1 Constant
  0.15,                                                    !- Coefficient2 x
  0.0,                                                     !- Coefficient3 x**2
  0.0,                                                     !- Minimum Value of x
  1.0;                                                     !- Maximum Value of x
! Performance coefficients assume rated Capacity and COP are at:
! 21.11C (70F) entering air dry-bulb temperature and 21.11C (70F) entering water temperature

Coil:Heating:WaterToAirHeatPump:EquationFit,
  1F_Area_D WAHP Heating Coil,                             !- Name
  ,                                                        !- Availability Schedule Name
  1F_Area_D WAHP Heating Water Inlet Node,                 !- Water Inlet Node Name
  1F_Area_D WAHP Heating Water Outlet Node,                !- Water Outlet Node Name
  1F_Area_D WAHP Cooling Coil Outlet,                      !- Air Inlet Node Name
  1F_Area_D WAHP Heating Coil Outlet,                      !- Air Outlet Node Name
  Autosize,                                                !- Rated Air Flow Rate {m3/s}
  Autosize,                                                !- Rated Water Flow Rate {m3/s}
  Autosize,                                                !- Rated Heating Capacity {W}
  4.5,                                                     !- Rated Heating Coefficient of Performance
  20.0,                                                    !- Rated Entering Water Temperature
  20.0,                                                    !- Rated Entering Air Dry-Bulb Temperature
  1.0,                                                     !- Ratio of Rated Heating Capacity to Rated Cooling Capacity
  1F_Area_D WAHP HtgCapCurve,                              !- Heating Capacity Curve Name
  1F_Area_D WAHP HtgPowCurve,                              !- Heating Power Consumption Curve Name
  1F_Area_D WAHP HtgPLFCurve;                              !- Part Load Fraction Correlation Curve Name

Curve:QuadLinear,
! Heating Capacity Function Curve for water-to-air heat pump
  1F_Area_D WAHP HtgCapCurve,                              !- Name
  -1.30782327125798,                                       !- Coefficient1 Constant
  -2.37467612404102,                                       !- Coefficient2 w
  4.00919247797279,                                        !- Coefficient3 x
  0.615580752610271,                                       !- Coefficient4 y
  0.0,                                                     !- Coefficient5 z
  -100.0,                                                  !- Minimum Value of w
  100.0,                                                   !- Maximum Value of w
  -100.0,                                                  !- Minimum Value of x
  100.0,                                                   !- Maximum Value of x
  -100.0,                                                  !- Minimum Value of y
  100.0,                                                   !- Maximum Value of y
  -100.0,                                                  !- Minimum Value of z
  100.0;                                                   !- Maximum Value of z

Curve:QuadLinear,
! Heating Power Consumption Function Curve for water-to-air heat pump
  1F_Area_D WAHP HtgPowCurve,                              !- Name
  -2.17352461285805,                                       !- Coefficient1 Constant
  0.830808361346509,                                       !- Coefficient2 w
  1.5682782658283,                                         !- Coefficient3 x
  0.689709515714146,                                       !- Coefficient4 y
  0.0,                                                     !- Coefficient5 z
  -100.0,                                                  !- Minimum Value of w
  100.0,                                                   !- Maximum Value of w
  -100.0,                                                  !- Minimum Value of x
  100.0,                                                   !- Maximum Value of x
  -100.0,                                                  !- Minimum Value of y
  100.0,                                                   !- Maximum Value of y
  -100.0,                                                  !- Minimum Value of z
  100.0;                                                   !- Maximum Value of z
! Part Load Fraction Curve for water-to-air heat pump

Curve:Quadratic,
  1F_Area_D WAHP HtgPLFCurve,                              !- Name
  0.85,                                                    !- Coefficient1 Constant
  0.15,                                                    !- Coefficient2 x
  0.0,                                                     !- Coefficient3 x**2
  0.0,                                                     !- Minimum Value of x
  1.0;                                                     !- Maximum Value of x

Coil:Heating:Electric,
  1F_Area_D WAHP Supp Heating Coil,                        !- Name
  ,                                                        !- Availability Schedule Name
  1,                                                       !- Efficiency
  0,                                                       !- Nominal Capacity of the Coil {W}
  1F_Area_D WAHP Supply Fan Outlet,                        !- Air Inlet Node Name
  1F_Area_D WAHP Supply Inlet,                             !- Air Outlet Node Name
  ;                                                        !- Coil Temp Setpoint Node

Branch,
  1F_Area_D Cooling Condenser Branch,                      !- Name
  ,                                                        !- Pressure Drop Curve Name
  Coil:Cooling:WaterToAirHeatPump:EquationFit,             !- Component Object Type
  1F_Area_D WAHP Cooling Coil,                             !- Component Name
  1F_Area_D WAHP Cooling Water Inlet Node,                 !- Component Inlet Node Name
  1F_Area_D WAHP Cooling Water Outlet Node;                !- Component Outlet Node Name

Branch,
  1F_Area_D Heating Condenser Branch,                      !- Name
  ,                                                        !- Pressure Drop Curve Name
  Coil:Heating:WaterToAirHeatPump:EquationFit,             !- Component Object Type
  1F_Area_D WAHP Heating Coil,                             !- Component Name
  1F_Area_D WAHP Heating Water Inlet Node,                 !- Component Inlet Node Name
  1F_Area_D WAHP Heating Water Outlet Node;                !- Component Outlet Node Name

ZoneControl:Thermostat,
  2F_Area_A Thermostat,                                    !- Name
  2F_Area_A,                                               !- Zone or ZoneList Name
  HVACTemplate-Always 4,                                   !- Control Type Schedule Name
  ThermostatSetpoint:DualSetpoint,                         !- Control Object Type
  Lakeside_AllZones_Tstat Dual SP Control;                 !- Control Name

DesignSpecification:OutdoorAir,
  SZ DSOA 2F_Area_A,                                       !- Name
  Flow/Person,                                             !- Outdoor Air Method
  0.00944,                                                 !- Outdoor Air Flow per Person {m3/s}
  0.0,                                                     !- Outdoor Air Flow per Zone Floor Area {m3/s-m2}
  0.0;                                                     !- Outdoor Air Flow per Zone {m3/s}

Sizing:Zone,
  2F_Area_A,                                               !- Zone or ZoneList Name
  SupplyAirTemperature,                                    !- Zone Cooling Design Supply Air Temperature Input Method
  14.0,                                                    !- Zone Cooling Design Supply Air Temperature {C}
  11.11,                                                   !- Zone Cooling Design Supply Air Temperature Difference {delta C}
  SupplyAirTemperature,                                    !- Zone Heating Design Supply Air Temperature Input Method
  50.0,                                                    !- Zone Heating Design Supply Air Temperature {C}
  ,                                                        !- Zone Heating Design Supply Air Temperature Difference {delta C}
  0.008,                                                   !- Zone Cooling Design Supply Air Humidity Ratio {kg-H20/kg-air}
  0.008,                                                   !- Zone Heating Design Supply Air Humidity Ratio {kg-H2O/kg-air}
  SZ DSOA 2F_Area_A,                                       !- Design Specification Outdoor Air Object Name
  ,                                                        !- Zone Heating Sizing Factor
  ,                                                        !- Zone Cooling Sizing Factor
  DesignDay,                                               !- Cooling Design Air Flow Method
  0,                                                       !- Cooling Design Air Flow Rate {m3/s}
  ,                                                        !- Cooling Minimum Air Flow per Zone Floor Area {m3/s-m2}
  ,                                                        !- Cooling Minimum Air Flow {m3/s}
  0,                                                       !- Cooling Minimum Air Flow Fraction {}
  DesignDay,                                               !- Heating Design Air Flow Method
  0,                                                       !- Heating Design Air Flow Rate {m3/s}
  ,                                                        !- Heating Maximum Air Flow per Zone Floor Area {m3/s-m2}
  ,                                                        !- Heating Maximum Air Flow {m3/s}
  0,                                                       !- Heating Maximum Air Flow Fraction {}
  SZ DSZAD 2F_Area_A;                                      !- Design Specification Zone Air Distribution Object Name

DesignSpecification:ZoneAirDistribution,
  SZ DSZAD 2F_Area_A,                                      !- Name
  1,                                                       !- Zone Air Distribution Effectiveness in Cooling Mode {}
  1;                                                       !- Zone Air Distribution Effectiveness in Heating Mode {}

ZoneHVAC:EquipmentConnections,
  2F_Area_A,                                               !- Zone Name
  2F_Area_A Equipment,                                     !- Zone Conditioning Equipment List Name
  2F_Area_A WAHP Supply Inlet,                             !- Zone Air Inlet Node or NodeList Name
  2F_Area_A WAHP Return,                                   !- Zone Air Exhaust Node or NodeList Name
  2F_Area_A Zone Air Node,                                 !- Zone Air Node Name
  2F_Area_A Return Outlet;                                 !- Zone Return Air Node Name

ZoneHVAC:EquipmentList,
  2F_Area_A Equipment,                                     !- Name
  SequentialLoad,                                          !- Load Distribution Scheme
  ZoneHVAC:WaterToAirHeatPump,                             !- Zone Equipment Object Type
  2F_Area_A WAHP,                                          !- Zone Equipment Name
  1,                                                       !- Zone Equipment Cooling Sequence
  1,                                                       !- Zone Equipment Heating or No-Load Sequence
  ,                                                        !- Zone Equipment Sequential Cooling Fraction Schedule Name
  ;                                                        !- Zone Equipment Sequential Heating Fraction Schedule Name
! Set heat pump outdoor air to zero, because zone is served by dedicated outdoor air system (DOAS)

ZoneHVAC:WaterToAirHeatPump,
  2F_Area_A WAHP,                                          !- Name
  ,                                                        !- Availability Schedule Name
  2F_Area_A WAHP Return,                                   !- Air Inlet Node Name
  2F_Area_A WAHP Supply Inlet,                             !- Air Outlet Node Name
  OutdoorAir:Mixer,                                        !- Outdoor Air Mixer Object Type
  2F_Area_A WAHP OA Mixing Box,                            !- Outdoor Air Mixer Name
  autosize,                                                !- Cooling Supply Air Flow Rate {m3/s}
  autosize,                                                !- Heating Supply Air Flow Rate {m3/s}
  ,                                                        !- No Load Supply Air Flow Rate {m3/s}
  ,                                                        !- No Load Supply Air Flow Rate Control Set To Low Speed
  autosize,                                                !- Cooling Outdoor Air Flow Rate {m3/s}
  autosize,                                                !- Heating Outdoor Air Flow Rate {m3/s}
  autosize,                                                !- No Load Outdoor Air Flow Rate {m3/s}
  Fan:OnOff,                                               !- Supply Air Fan Object Type
  2F_Area_A WAHP Supply Fan,                               !- Supply Air Fan Name
  Coil:Heating:WaterToAirHeatPump:EquationFit,             !- Heating Coil Object Type
  2F_Area_A WAHP Heating Coil,                             !- Heating Coil Name
  Coil:Cooling:WaterToAirHeatPump:EquationFit,             !- Cooling Coil Object Type
  2F_Area_A WAHP Cooling Coil,                             !- Cooling Coil Name
  Coil:Heating:Electric,                                   !- Supplemental Heating Coil Object Type
  2F_Area_A WAHP Supp Heating Coil,                        !- Supplemental Heating Coil Name
  autosize,                                                !- Maximum Supply Air Temperature from Supplemental Heater {C}
  20.0,                                                    !- Maximum Outdoor Dry-Bulb Temperature for Supplemental Heater Operation {C}
  2F_Area_A WAHP Outside Air Inlet,                        !- Outdoor Dry-Bulb Temperature Sensor Node Name
  DrawThrough,                                             !- Fan Placement
  HVACTemplate-Always 0,                                   !- Supply Air Fan Operating Mode Schedule Name
  ,                                                        !- Availability Manager List Name
  Cycling;                                                 !- Heat Pump Coil Water Flow Mode

Fan:OnOff,
  2F_Area_A WAHP Supply Fan,                               !- Name
  HVACTemplate-Always 1,                                   !- Availability Schedule Name
  0.7,                                                     !- Fan Efficiency
  75,                                                      !- Pressure Rise {Pa}
  autosize,                                                !- Maximum Flow Rate {m3/s}
  0.9,                                                     !- Motor Efficiency
  1,                                                       !- Motor in Airstream Fraction
  2F_Area_A WAHP Heating Coil Outlet,                      !- Air Inlet Node Name
  2F_Area_A WAHP Supply Fan Outlet;                        !- Air Outlet Node Name

OutdoorAir:Mixer,
  2F_Area_A WAHP OA Mixing Box,                            !- Name
  2F_Area_A WAHP Mixed Air Outlet,                         !- Mixed Air Node Name
  2F_Area_A WAHP Outside Air Inlet,                        !- Outside Air Stream Node Name
  2F_Area_A WAHP Relief Air Outlet,                        !- Relief Air Stream Node Name
  2F_Area_A WAHP Return;                                   !- Return Air Stream Node Name

OutdoorAir:Node,
  2F_Area_A WAHP Outside Air Inlet,                        !- Name
  -1;                                                      !- Height Above Ground
! Performance coefficients assume rated Capacities and COP are at:
! 26.7C (80F) entering air dry-bulb temperature, 19.4C (67F) entering air wet-bulb temperature
! and 29.4C (85F) entering water temperature

Coil:Cooling:WaterToAirHeatPump:EquationFit,
  2F_Area_A WAHP Cooling Coil,                             !- Name
  ,                                                        !- Availability Schedule Name
  2F_Area_A WAHP Cooling Water Inlet Node,                 !- Water Inlet Node Name
  2F_Area_A WAHP Cooling Water Outlet Node,                !- Water Outlet Node Name
  2F_Area_A WAHP Mixed Air Outlet,                         !- Air Inlet Node Name
  2F_Area_A WAHP Cooling Coil Outlet,                      !- Air Outlet Node Name
  Autosize,                                                !- Rated Air Flow Rate {m3/s}
  Autosize,                                                !- Rated Water Flow Rate {m3/s}
  Autosize,                                                !- Rated Total Cooling Capacity {W}
  Autosize,                                                !- Rated Sensible Cooling Capacity {W}
  4.8,                                                     !- Rated Cooling Coefficient of Performance
  30.0,                                                    !- Rated Entering Water Temperature
  27.0,                                                    !- Rated Entering Air Dry-Bulb Temperature
  19.0,                                                    !- Rated Entering Air Wet-Bulb Temperature
  2F_Area_A WAHP ClgTotCapCurve,                           !- Total Cooling Capacity Curve Name
  2F_Area_A WAHP ClgSensCapCurve,                          !- Sensible Cooling Capacity Curve Name
  2F_Area_A WAHP ClgPowCurve,                              !- Cooling Power Consumption Curve Name
  2F_Area_A WAHP ClgPLFCurve,                              !- Part Load Fraction Correlation Curve Name
  0,                                                       !- Nominal Time for Condensate Removal to Begin {s}
  0,                                                       !- Ratio of Initial Moisture Evaporation Rate and Steady State Latent Capacity {dimensionless}
  2.5,                                                     !- Maximum Cycling Rate {cycles/hr}
  60,                                                      !- Latent Capacity Time Constant {s}
  60;                                                      !- Fan Delay Time {s}

Curve:QuadLinear,
! Total Cooling Capacity Function Curve for water-to-air heat pump
  2F_Area_A WAHP ClgTotCapCurve,                           !- Name
  -9.32564313298629,                                       !- Coefficient1 Constant
  11.088084240584,                                         !- Coefficient2 w
  -1.75195196204063,                                       !- Coefficient3 x
  0.760820340847872,                                       !- Coefficient4 y
  0.0,                                                     !- Coefficient5 z
  -100.0,                                                  !- Minimum Value of w
  100.0,                                                   !- Maximum Value of w
  -100.0,                                                  !- Minimum Value of x
  100.0,                                                   !- Maximum Value of x
  -100.0,                                                  !- Minimum Value of y
  100.0,                                                   !- Maximum Value of y
  -100.0,                                                  !- Minimum Value of z
  100.0;                                                   !- Maximum Value of z

Curve:QuintLinear,
! Sensible Cooling Capacity Function Curve for water-to-air heat pump
  2F_Area_A WAHP ClgSensCapCurve,                          !- Name
  -5.26562830117273,                                       !- Coefficient1 Constant
  17.3118017582604,                                        !- Coefficient2 v
  -11.4496890368762,                                       !- Coefficient3 w
  -0.944804890543481,                                      !- Coefficient4 x
  0.739606605780884,                                       !- Coefficient5 y
  0.0,                                                     !- Coefficient6 z
  -100.0,                                                  !- Minimum Value of v
  100.0,                                                   !- Maximum Value of v
  -100.0,                                                  !- Minimum Value of w
  100.0,                                                   !- Maximum Value of w
  -100.0,                                                  !- Minimum Value of x
  100.0,                                                   !- Maximum Value of x
  -100.0,                                                  !- Minimum Value of y
  100.0,                                                   !- Maximum Value of y
  -100.0,                                                  !- Minimum Value of z
  100.0;                                                   !- Maximum Value of z

Curve:QuadLinear,
! Cooling Power Consumption Function Curve for water-to-air heat pump
  2F_Area_A WAHP ClgPowCurve,                              !- Name
  -3.25323327026219,                                       !- Coefficient1 Constant
  -0.990977022339372,                                      !- Coefficient2 w
  4.03828937789764,                                        !- Coefficient3 x
  0.952179101682919,                                       !- Coefficient4 y
  0.0,                                                     !- Coefficient5 z
  -100.0,                                                  !- Minimum Value of w
  100.0,                                                   !- Maximum Value of w
  -100.0,                                                  !- Minimum Value of x
  100.0,                                                   !- Maximum Value of x
  -100.0,                                                  !- Minimum Value of y
  100.0,                                                   !- Maximum Value of y
  -100.0,                                                  !- Minimum Value of z
  100.0;                                                   !- Maximum Value of z
! Part Load Fraction Curve for water-to-air heat pump

Curve:Quadratic,
  2F_Area_A WAHP ClgPLFCurve,                              !- Name
  0.85,                                                    !- Coefficient1 Constant
  0.15,                                                    !- Coefficient2 x
  0.0,                                                     !- Coefficient3 x**2
  0.0,                                                     !- Minimum Value of x
  1.0;                                                     !- Maximum Value of x
! Performance coefficients assume rated Capacity and COP are at:
! 21.11C (70F) entering air dry-bulb temperature and 21.11C (70F) entering water temperature

Coil:Heating:WaterToAirHeatPump:EquationFit,
  2F_Area_A WAHP Heating Coil,                             !- Name
  ,                                                        !- Availability Schedule Name
  2F_Area_A WAHP Heating Water Inlet Node,                 !- Water Inlet Node Name
  2F_Area_A WAHP Heating Water Outlet Node,                !- Water Outlet Node Name
  2F_Area_A WAHP Cooling Coil Outlet,                      !- Air Inlet Node Name
  2F_Area_A WAHP Heating Coil Outlet,                      !- Air Outlet Node Name
  Autosize,                                                !- Rated Air Flow Rate {m3/s}
  Autosize,                                                !- Rated Water Flow Rate {m3/s}
  Autosize,                                                !- Rated Heating Capacity {W}
  4.5,                                                     !- Rated Heating Coefficient of Performance
  20.0,                                                    !- Rated Entering Water Temperature
  20.0,                                                    !- Rated Entering Air Dry-Bulb Temperature
  1.0,                                                     !- Ratio of Rated Heating Capacity to Rated Cooling Capacity
  2F_Area_A WAHP HtgCapCurve,                              !- Heating Capacity Curve Name
  2F_Area_A WAHP HtgPowCurve,                              !- Heating Power Consumption Curve Name
  2F_Area_A WAHP HtgPLFCurve;                              !- Part Load Fraction Correlation Curve Name

Curve:QuadLinear,
! Heating Capacity Function Curve for water-to-air heat pump
  2F_Area_A WAHP HtgCapCurve,                              !- Name
  -1.30782327125798,                                       !- Coefficient1 Constant
  -2.37467612404102,                                       !- Coefficient2 w
  4.00919247797279,                                        !- Coefficient3 x
  0.615580752610271,                                       !- Coefficient4 y
  0.0,                                                     !- Coefficient5 z
  -100.0,                                                  !- Minimum Value of w
  100.0,                                                   !- Maximum Value of w
  -100.0,                                                  !- Minimum Value of x
  100.0,                                                   !- Maximum Value of x
  -100.0,                                                  !- Minimum Value of y
  100.0,                                                   !- Maximum Value of y
  -100.0,                                                  !- Minimum Value of z
  100.0;                                                   !- Maximum Value of z

Curve:QuadLinear,
! Heating Power Consumption Function Curve for water-to-air heat pump
  2F_Area_A WAHP HtgPowCurve,                              !- Name
  -2.17352461285805,                                       !- Coefficient1 Constant
  0.830808361346509,                                       !- Coefficient2 w
  1.5682782658283,                                         !- Coefficient3 x
  0.689709515714146,                                       !- Coefficient4 y
  0.0,                                                     !- Coefficient5 z
  -100.0,                                                  !- Minimum Value of w
  100.0,                                                   !- Maximum Value of w
  -100.0,                                                  !- Minimum Value of x
  100.0,                                                   !- Maximum Value of x
  -100.0,                                                  !- Minimum Value of y
  100.0,                                                   !- Maximum Value of y
  -100.0,                                                  !- Minimum Value of z
  100.0;                                                   !- Maximum Value of z
! Part Load Fraction Curve for water-to-air heat pump

Curve:Quadratic,
  2F_Area_A WAHP HtgPLFCurve,                              !- Name
  0.85,                                                    !- Coefficient1 Constant
  0.15,                                                    !- Coefficient2 x
  0.0,                                                     !- Coefficient3 x**2
  0.0,                                                     !- Minimum Value of x
  1.0;                                                     !- Maximum Value of x

Coil:Heating:Electric,
  2F_Area_A WAHP Supp Heating Coil,                        !- Name
  ,                                                        !- Availability Schedule Name
  1,                                                       !- Efficiency
  0,                                                       !- Nominal Capacity of the Coil {W}
  2F_Area_A WAHP Supply Fan Outlet,                        !- Air Inlet Node Name
  2F_Area_A WAHP Supply Inlet,                             !- Air Outlet Node Name
  ;                                                        !- Coil Temp Setpoint Node

Branch,
  2F_Area_A Cooling Condenser Branch,                      !- Name
  ,                                                        !- Pressure Drop Curve Name
  Coil:Cooling:WaterToAirHeatPump:EquationFit,             !- Component Object Type
  2F_Area_A WAHP Cooling Coil,                             !- Component Name
  2F_Area_A WAHP Cooling Water Inlet Node,                 !- Component Inlet Node Name
  2F_Area_A WAHP Cooling Water Outlet Node;                !- Component Outlet Node Name

Branch,
  2F_Area_A Heating Condenser Branch,                      !- Name
  ,                                                        !- Pressure Drop Curve Name
  Coil:Heating:WaterToAirHeatPump:EquationFit,             !- Component Object Type
  2F_Area_A WAHP Heating Coil,                             !- Component Name
  2F_Area_A WAHP Heating Water Inlet Node,                 !- Component Inlet Node Name
  2F_Area_A WAHP Heating Water Outlet Node;                !- Component Outlet Node Name

ZoneControl:Thermostat,
  2F_Area_B Thermostat,                                    !- Name
  2F_Area_B,                                               !- Zone or ZoneList Name
  HVACTemplate-Always 4,                                   !- Control Type Schedule Name
  ThermostatSetpoint:DualSetpoint,                         !- Control Object Type
  Lakeside_AllZones_Tstat Dual SP Control;                 !- Control Name

DesignSpecification:OutdoorAir,
  SZ DSOA 2F_Area_B,                                       !- Name
  Flow/Person,                                             !- Outdoor Air Method
  0.00944,                                                 !- Outdoor Air Flow per Person {m3/s}
  0.0,                                                     !- Outdoor Air Flow per Zone Floor Area {m3/s-m2}
  0.0;                                                     !- Outdoor Air Flow per Zone {m3/s}

Sizing:Zone,
  2F_Area_B,                                               !- Zone or ZoneList Name
  SupplyAirTemperature,                                    !- Zone Cooling Design Supply Air Temperature Input Method
  14.0,                                                    !- Zone Cooling Design Supply Air Temperature {C}
  11.11,                                                   !- Zone Cooling Design Supply Air Temperature Difference {delta C}
  SupplyAirTemperature,                                    !- Zone Heating Design Supply Air Temperature Input Method
  50.0,                                                    !- Zone Heating Design Supply Air Temperature {C}
  ,                                                        !- Zone Heating Design Supply Air Temperature Difference {delta C}
  0.008,                                                   !- Zone Cooling Design Supply Air Humidity Ratio {kg-H20/kg-air}
  0.008,                                                   !- Zone Heating Design Supply Air Humidity Ratio {kg-H2O/kg-air}
  SZ DSOA 2F_Area_B,                                       !- Design Specification Outdoor Air Object Name
  ,                                                        !- Zone Heating Sizing Factor
  ,                                                        !- Zone Cooling Sizing Factor
  DesignDay,                                               !- Cooling Design Air Flow Method
  0,                                                       !- Cooling Design Air Flow Rate {m3/s}
  ,                                                        !- Cooling Minimum Air Flow per Zone Floor Area {m3/s-m2}
  ,                                                        !- Cooling Minimum Air Flow {m3/s}
  0,                                                       !- Cooling Minimum Air Flow Fraction {}
  DesignDay,                                               !- Heating Design Air Flow Method
  0,                                                       !- Heating Design Air Flow Rate {m3/s}
  ,                                                        !- Heating Maximum Air Flow per Zone Floor Area {m3/s-m2}
  ,                                                        !- Heating Maximum Air Flow {m3/s}
  0,                                                       !- Heating Maximum Air Flow Fraction {}
  SZ DSZAD 2F_Area_B;                                      !- Design Specification Zone Air Distribution Object Name

DesignSpecification:ZoneAirDistribution,
  SZ DSZAD 2F_Area_B,                                      !- Name
  1,                                                       !- Zone Air Distribution Effectiveness in Cooling Mode {}
  1;                                                       !- Zone Air Distribution Effectiveness in Heating Mode {}

ZoneHVAC:EquipmentConnections,
  2F_Area_B,                                               !- Zone Name
  2F_Area_B Equipment,                                     !- Zone Conditioning Equipment List Name
  2F_Area_B WAHP Supply Inlet,                             !- Zone Air Inlet Node or NodeList Name
  2F_Area_B WAHP Return,                                   !- Zone Air Exhaust Node or NodeList Name
  2F_Area_B Zone Air Node,                                 !- Zone Air Node Name
  2F_Area_B Return Outlet;                                 !- Zone Return Air Node Name

ZoneHVAC:EquipmentList,
  2F_Area_B Equipment,                                     !- Name
  SequentialLoad,                                          !- Load Distribution Scheme
  ZoneHVAC:WaterToAirHeatPump,                             !- Zone Equipment Object Type
  2F_Area_B WAHP,                                          !- Zone Equipment Name
  1,                                                       !- Zone Equipment Cooling Sequence
  1,                                                       !- Zone Equipment Heating or No-Load Sequence
  ,                                                        !- Zone Equipment Sequential Cooling Fraction Schedule Name
  ;                                                        !- Zone Equipment Sequential Heating Fraction Schedule Name
! Set heat pump outdoor air to zero, because zone is served by dedicated outdoor air system (DOAS)

ZoneHVAC:WaterToAirHeatPump,
  2F_Area_B WAHP,                                          !- Name
  ,                                                        !- Availability Schedule Name
  2F_Area_B WAHP Return,                                   !- Air Inlet Node Name
  2F_Area_B WAHP Supply Inlet,                             !- Air Outlet Node Name
  OutdoorAir:Mixer,                                        !- Outdoor Air Mixer Object Type
  2F_Area_B WAHP OA Mixing Box,                            !- Outdoor Air Mixer Name
  autosize,                                                !- Cooling Supply Air Flow Rate {m3/s}
  autosize,                                                !- Heating Supply Air Flow Rate {m3/s}
  ,                                                        !- No Load Supply Air Flow Rate {m3/s}
  ,                                                        !- No Load Supply Air Flow Rate Control Set To Low Speed
  autosize,                                                !- Cooling Outdoor Air Flow Rate {m3/s}
  autosize,                                                !- Heating Outdoor Air Flow Rate {m3/s}
  autosize,                                                !- No Load Outdoor Air Flow Rate {m3/s}
  Fan:OnOff,                                               !- Supply Air Fan Object Type
  2F_Area_B WAHP Supply Fan,                               !- Supply Air Fan Name
  Coil:Heating:WaterToAirHeatPump:EquationFit,             !- Heating Coil Object Type
  2F_Area_B WAHP Heating Coil,                             !- Heating Coil Name
  Coil:Cooling:WaterToAirHeatPump:EquationFit,             !- Cooling Coil Object Type
  2F_Area_B WAHP Cooling Coil,                             !- Cooling Coil Name
  Coil:Heating:Electric,                                   !- Supplemental Heating Coil Object Type
  2F_Area_B WAHP Supp Heating Coil,                        !- Supplemental Heating Coil Name
  autosize,                                                !- Maximum Supply Air Temperature from Supplemental Heater {C}
  20.0,                                                    !- Maximum Outdoor Dry-Bulb Temperature for Supplemental Heater Operation {C}
  2F_Area_B WAHP Outside Air Inlet,                        !- Outdoor Dry-Bulb Temperature Sensor Node Name
  DrawThrough,                                             !- Fan Placement
  HVACTemplate-Always 0,                                   !- Supply Air Fan Operating Mode Schedule Name
  ,                                                        !- Availability Manager List Name
  Cycling;                                                 !- Heat Pump Coil Water Flow Mode

Fan:OnOff,
  2F_Area_B WAHP Supply Fan,                               !- Name
  HVACTemplate-Always 1,                                   !- Availability Schedule Name
  0.7,                                                     !- Fan Efficiency
  75,                                                      !- Pressure Rise {Pa}
  autosize,                                                !- Maximum Flow Rate {m3/s}
  0.9,                                                     !- Motor Efficiency
  1,                                                       !- Motor in Airstream Fraction
  2F_Area_B WAHP Heating Coil Outlet,                      !- Air Inlet Node Name
  2F_Area_B WAHP Supply Fan Outlet;                        !- Air Outlet Node Name

OutdoorAir:Mixer,
  2F_Area_B WAHP OA Mixing Box,                            !- Name
  2F_Area_B WAHP Mixed Air Outlet,                         !- Mixed Air Node Name
  2F_Area_B WAHP Outside Air Inlet,                        !- Outside Air Stream Node Name
  2F_Area_B WAHP Relief Air Outlet,                        !- Relief Air Stream Node Name
  2F_Area_B WAHP Return;                                   !- Return Air Stream Node Name

OutdoorAir:Node,
  2F_Area_B WAHP Outside Air Inlet,                        !- Name
  -1;                                                      !- Height Above Ground
! Performance coefficients assume rated Capacities and COP are at:
! 26.7C (80F) entering air dry-bulb temperature, 19.4C (67F) entering air wet-bulb temperature
! and 29.4C (85F) entering water temperature

Coil:Cooling:WaterToAirHeatPump:EquationFit,
  2F_Area_B WAHP Cooling Coil,                             !- Name
  ,                                                        !- Availability Schedule Name
  2F_Area_B WAHP Cooling Water Inlet Node,                 !- Water Inlet Node Name
  2F_Area_B WAHP Cooling Water Outlet Node,                !- Water Outlet Node Name
  2F_Area_B WAHP Mixed Air Outlet,                         !- Air Inlet Node Name
  2F_Area_B WAHP Cooling Coil Outlet,                      !- Air Outlet Node Name
  Autosize,                                                !- Rated Air Flow Rate {m3/s}
  Autosize,                                                !- Rated Water Flow Rate {m3/s}
  Autosize,                                                !- Rated Total Cooling Capacity {W}
  Autosize,                                                !- Rated Sensible Cooling Capacity {W}
  4.8,                                                     !- Rated Cooling Coefficient of Performance
  30.0,                                                    !- Rated Entering Water Temperature
  27.0,                                                    !- Rated Entering Air Dry-Bulb Temperature
  19.0,                                                    !- Rated Entering Air Wet-Bulb Temperature
  2F_Area_B WAHP ClgTotCapCurve,                           !- Total Cooling Capacity Curve Name
  2F_Area_B WAHP ClgSensCapCurve,                          !- Sensible Cooling Capacity Curve Name
  2F_Area_B WAHP ClgPowCurve,                              !- Cooling Power Consumption Curve Name
  2F_Area_B WAHP ClgPLFCurve,                              !- Part Load Fraction Correlation Curve Name
  0,                                                       !- Nominal Time for Condensate Removal to Begin {s}
  0,                                                       !- Ratio of Initial Moisture Evaporation Rate and Steady State Latent Capacity {dimensionless}
  2.5,                                                     !- Maximum Cycling Rate {cycles/hr}
  60,                                                      !- Latent Capacity Time Constant {s}
  60;                                                      !- Fan Delay Time {s}

Curve:QuadLinear,
! Total Cooling Capacity Function Curve for water-to-air heat pump
  2F_Area_B WAHP ClgTotCapCurve,                           !- Name
  -9.32564313298629,                                       !- Coefficient1 Constant
  11.088084240584,                                         !- Coefficient2 w
  -1.75195196204063,                                       !- Coefficient3 x
  0.760820340847872,                                       !- Coefficient4 y
  0.0,                                                     !- Coefficient5 z
  -100.0,                                                  !- Minimum Value of w
  100.0,                                                   !- Maximum Value of w
  -100.0,                                                  !- Minimum Value of x
  100.0,                                                   !- Maximum Value of x
  -100.0,                                                  !- Minimum Value of y
  100.0,                                                   !- Maximum Value of y
  -100.0,                                                  !- Minimum Value of z
  100.0;                                                   !- Maximum Value of z

Curve:QuintLinear,
! Sensible Cooling Capacity Function Curve for water-to-air heat pump
  2F_Area_B WAHP ClgSensCapCurve,                          !- Name
  -5.26562830117273,                                       !- Coefficient1 Constant
  17.3118017582604,                                        !- Coefficient2 v
  -11.4496890368762,                                       !- Coefficient3 w
  -0.944804890543481,                                      !- Coefficient4 x
  0.739606605780884,                                       !- Coefficient5 y
  0.0,                                                     !- Coefficient6 z
  -100.0,                                                  !- Minimum Value of v
  100.0,                                                   !- Maximum Value of v
  -100.0,                                                  !- Minimum Value of w
  100.0,                                                   !- Maximum Value of w
  -100.0,                                                  !- Minimum Value of x
  100.0,                                                   !- Maximum Value of x
  -100.0,                                                  !- Minimum Value of y
  100.0,                                                   !- Maximum Value of y
  -100.0,                                                  !- Minimum Value of z
  100.0;                                                   !- Maximum Value of z

Curve:QuadLinear,
! Cooling Power Consumption Function Curve for water-to-air heat pump
  2F_Area_B WAHP ClgPowCurve,                              !- Name
  -3.25323327026219,                                       !- Coefficient1 Constant
  -0.990977022339372,                                      !- Coefficient2 w
  4.03828937789764,                                        !- Coefficient3 x
  0.952179101682919,                                       !- Coefficient4 y
  0.0,                                                     !- Coefficient5 z
  -100.0,                                                  !- Minimum Value of w
  100.0,                                                   !- Maximum Value of w
  -100.0,                                                  !- Minimum Value of x
  100.0,                                                   !- Maximum Value of x
  -100.0,                                                  !- Minimum Value of y
  100.0,                                                   !- Maximum Value of y
  -100.0,                                                  !- Minimum Value of z
  100.0;                                                   !- Maximum Value of z
! Part Load Fraction Curve for water-to-air heat pump

Curve:Quadratic,
  2F_Area_B WAHP ClgPLFCurve,                              !- Name
  0.85,                                                    !- Coefficient1 Constant
  0.15,                                                    !- Coefficient2 x
  0.0,                                                     !- Coefficient3 x**2
  0.0,                                                     !- Minimum Value of x
  1.0;                                                     !- Maximum Value of x
! Performance coefficients assume rated Capacity and COP are at:
! 21.11C (70F) entering air dry-bulb temperature and 21.11C (70F) entering water temperature

Coil:Heating:WaterToAirHeatPump:EquationFit,
  2F_Area_B WAHP Heating Coil,                             !- Name
  ,                                                        !- Availability Schedule Name
  2F_Area_B WAHP Heating Water Inlet Node,                 !- Water Inlet Node Name
  2F_Area_B WAHP Heating Water Outlet Node,                !- Water Outlet Node Name
  2F_Area_B WAHP Cooling Coil Outlet,                      !- Air Inlet Node Name
  2F_Area_B WAHP Heating Coil Outlet,                      !- Air Outlet Node Name
  Autosize,                                                !- Rated Air Flow Rate {m3/s}
  Autosize,                                                !- Rated Water Flow Rate {m3/s}
  Autosize,                                                !- Rated Heating Capacity {W}
  4.5,                                                     !- Rated Heating Coefficient of Performance
  20.0,                                                    !- Rated Entering Water Temperature
  20.0,                                                    !- Rated Entering Air Dry-Bulb Temperature
  1.0,                                                     !- Ratio of Rated Heating Capacity to Rated Cooling Capacity
  2F_Area_B WAHP HtgCapCurve,                              !- Heating Capacity Curve Name
  2F_Area_B WAHP HtgPowCurve,                              !- Heating Power Consumption Curve Name
  2F_Area_B WAHP HtgPLFCurve;                              !- Part Load Fraction Correlation Curve Name

Curve:QuadLinear,
! Heating Capacity Function Curve for water-to-air heat pump
  2F_Area_B WAHP HtgCapCurve,                              !- Name
  -1.30782327125798,                                       !- Coefficient1 Constant
  -2.37467612404102,                                       !- Coefficient2 w
  4.00919247797279,                                        !- Coefficient3 x
  0.615580752610271,                                       !- Coefficient4 y
  0.0,                                                     !- Coefficient5 z
  -100.0,                                                  !- Minimum Value of w
  100.0,                                                   !- Maximum Value of w
  -100.0,                                                  !- Minimum Value of x
  100.0,                                                   !- Maximum Value of x
  -100.0,                                                  !- Minimum Value of y
  100.0,                                                   !- Maximum Value of y
  -100.0,                                                  !- Minimum Value of z
  100.0;                                                   !- Maximum Value of z

Curve:QuadLinear,
! Heating Power Consumption Function Curve for water-to-air heat pump
  2F_Area_B WAHP HtgPowCurve,                              !- Name
  -2.17352461285805,                                       !- Coefficient1 Constant
  0.830808361346509,                                       !- Coefficient2 w
  1.5682782658283,                                         !- Coefficient3 x
  0.689709515714146,                                       !- Coefficient4 y
  0.0,                                                     !- Coefficient5 z
  -100.0,                                                  !- Minimum Value of w
  100.0,                                                   !- Maximum Value of w
  -100.0,                                                  !- Minimum Value of x
  100.0,                                                   !- Maximum Value of x
  -100.0,                                                  !- Minimum Value of y
  100.0,                                                   !- Maximum Value of y
  -100.0,                                                  !- Minimum Value of z
  100.0;                                                   !- Maximum Value of z
! Part Load Fraction Curve for water-to-air heat pump

Curve:Quadratic,
  2F_Area_B WAHP HtgPLFCurve,                              !- Name
  0.85,                                                    !- Coefficient1 Constant
  0.15,                                                    !- Coefficient2 x
  0.0,                                                     !- Coefficient3 x**2
  0.0,                                                     !- Minimum Value of x
  1.0;                                                     !- Maximum Value of x

Coil:Heating:Electric,
  2F_Area_B WAHP Supp Heating Coil,                        !- Name
  ,                                                        !- Availability Schedule Name
  1,                                                       !- Efficiency
  0,                                                       !- Nominal Capacity of the Coil {W}
  2F_Area_B WAHP Supply Fan Outlet,                        !- Air Inlet Node Name
  2F_Area_B WAHP Supply Inlet,                             !- Air Outlet Node Name
  ;                                                        !- Coil Temp Setpoint Node

Branch,
  2F_Area_B Cooling Condenser Branch,                      !- Name
  ,                                                        !- Pressure Drop Curve Name
  Coil:Cooling:WaterToAirHeatPump:EquationFit,             !- Component Object Type
  2F_Area_B WAHP Cooling Coil,                             !- Component Name
  2F_Area_B WAHP Cooling Water Inlet Node,                 !- Component Inlet Node Name
  2F_Area_B WAHP Cooling Water Outlet Node;                !- Component Outlet Node Name

Branch,
  2F_Area_B Heating Condenser Branch,                      !- Name
  ,                                                        !- Pressure Drop Curve Name
  Coil:Heating:WaterToAirHeatPump:EquationFit,             !- Component Object Type
  2F_Area_B WAHP Heating Coil,                             !- Component Name
  2F_Area_B WAHP Heating Water Inlet Node,                 !- Component Inlet Node Name
  2F_Area_B WAHP Heating Water Outlet Node;                !- Component Outlet Node Name

Boiler:HotWater,
  Main Boiler,                                             !- Name
  NaturalGas,                                              !- Fuel Type
  autosize,                                                !- Nominal Capacity {W}
  0.8,                                                     !- Nominal Thermal Efficiency
  LeavingBoiler,                                           !- Efficiency Curve Temperature Evaluation Variable
  Main Boiler Efficiency Curve,                            !- Normalized Boiler Efficiency Curve Name
  autosize,                                                !- Max Design Boiler Water Flow Rate {m3/s}
  0.0,                                                     !- Minimum Part Load Ratio
  1.1,                                                     !- Maximum Part Load Ratio
  1.0,                                                     !- Optimum Part Load Ratio
  Main Boiler HW Inlet,                                    !- Water Inlet Node Name
  Main Boiler HW Outlet,                                   !- Water Outlet Node Name
  100.0,                                                   !- Temp Upper Limit Water Outlet {C}
  ConstantFlow,                                            !- Boiler Flow Mode
  0,                                                       !- On Cycle Parasitic Electric Load {W}
  1.0;                                                     !- Sizing Factor

Curve:Quadratic,
  Main Boiler Efficiency Curve,                            !- Name
  0.97,                                                    !- Coefficient1 Constant
  0.0633,                                                  !- Coefficient2 x
  -0.0333,                                                 !- Coefficient3 x**2
  0.0,                                                     !- Minimum Value of x
  1.0;                                                     !- Maximum Value of x

Branch,
  Main Boiler Mixed Branch,                                !- Name
  ,                                                        !- Pressure Drop Curve Name
  Boiler:HotWater,                                         !- Component Object Type
  Main Boiler,                                             !- Component Name
  Main Boiler HW Inlet,                                    !- Component Inlet Node Name
  Main Boiler HW Outlet;                                   !- Component Outlet Node Name

CoolingTower:SingleSpeed,
  Main Tower,                                              !- Name
  Main Tower CndW Inlet,                                   !- Water Inlet Node Name
  Main Tower CndW Outlet,                                  !- Water Outlet Node Name
  autosize,                                                !- Design Water Flow Rate {m3/s}
  autosize,                                                !- Design Air Flow Rate {m3/s}
  autosize,                                                !- Design Fan Power {W}
  autosize,                                                !- Design U-Factor Times Area Value {W/K}
  autocalculate,                                           !- Free Convection Air Flow Rate {m3/s}
  ,                                                        !- Free Convection Air Flow Sizing Factor
  autocalculate,                                           !- Free Convection U-Factor Times Area Value {W/K}
  ,                                                        !- Free Convection U-Factor Times Area Value Sizing Factor
  UFactorTimesAreaAndDesignWaterFlowRate,                  !- Performance Input Method
  ,                                                        !- Heat Rejection Capacity and Nominal Capacity Sizing Ratio
  ,                                                        !- Nominal Capacity {W}
  autocalculate,                                           !- Free Convection Capacity {W}
  ,                                                        !- Free Convection Nominal Capacity Sizing Factor
  ,                                                        !- Design Inlet Air Dry-Bulb Temperature {C}
  ,                                                        !- Design Inlet Air Wet-Bulb Temperature {C}
  ,                                                        !- Design Approach Temperature {deltaT}
  ,                                                        !- Design Range Temperature {deltaT}
  ,                                                        !- Basin Heater Capacity {W/K}
  ,                                                        !- Basin Heater Setpoint Temperature {C}
  ,                                                        !- Basin Heater Operating Schedule Name
  SaturatedExit,                                           !- Evaporation Loss Mode
  ,                                                        !- Evaporation Loss Factor {percent/K}
  0.008,                                                   !- Drift Loss Percent {percent}
  ConcentrationRatio,                                      !- Blowdown Calculation Mode
  3,                                                       !- Blowdown Concentration Ratio
  ,                                                        !- Blowdown Makeup Water Usage Schedule Name
  ,                                                        !- Supply Water Storage Tank Name
  Main Tower Cooling Tower Outdoor Air Inlet Node,         !- Outdoor Air Inlet Node Name
  FanCycling,                                              !- Capacity Control
  ,                                                        !- Number of Cells
  ,                                                        !- Cell Control
  ,                                                        !- Cell Minimum  Water Flow Rate Fraction
  ,                                                        !- Cell Maximum Water Flow Rate Fraction
  1.0;                                                     !- Sizing Factor

OutdoorAir:Node,
  Main Tower Cooling Tower Outdoor Air Inlet Node,         !- Name
  -1;                                                      !- Height Above Ground

Branch,
  Main Tower Mixed Branch,                                 !- Name
  ,                                                        !- Pressure Drop Curve Name
  CoolingTower:SingleSpeed,                                !- Component Object Type
  Main Tower,                                              !- Component Name
  Main Tower CndW Inlet,                                   !- Component Inlet Node Name
  Main Tower CndW Outlet;                                  !- Component Outlet Node Name

Sizing:Plant,
  Only Water Loop Mixed Water Loop,                        !- Plant or Condenser Loop Name
  Condenser,                                               !- Loop Type
  34,                                                      !- Design loop exit temperature {C}
  5.6;                                                     !- Design loop delta T {deltaC}

PlantLoop,
  Only Water Loop Mixed Water Loop,                        !- Name
  Water,                                                   !- Fluid Type
  ,                                                        !- User Defined Fluid Type
  Only Water Loop Operation,                               !- PlantEquipmentOperationSchemes Name
  Only Water Loop Mixed Supply Outlet,                     !- Loop Temperature Setpoint Node Name
  100,                                                     !- Maximum Loop Temperature {C}
  10,                                                      !- Minimum Loop Temperature {C}
  autosize,                                                !- Maximum Loop Volumetric Flow Rate {m3/s}
  0,                                                       !- Minimum Loop Volumetric Flow Rate {m3/s}
  autosize,                                                !- volume of the plant loop {m3}
  Only Water Loop Mixed Supply Inlet,                      !- Plant Side Inlet Node Name
  Only Water Loop Mixed Supply Outlet,                     !- Plant Side Outlet Node Name
  Only Water Loop Mixed Supply Side Branches,              !- Plant Side Branch List Name
  Only Water Loop Mixed Supply Side Connectors,            !- Plant Side Connector List Name
  Only Water Loop Mixed Demand Inlet,                      !- Demand Side Inlet Node Name
  Only Water Loop Mixed Demand Outlet,                     !- Demand Side Outlet Node Name
  Only Water Loop Mixed Demand Side Branches,              !- Demand Side Branch List Name
  Only Water Loop Mixed Demand Side Connectors,            !- Demand Side Connector List Name
  SequentialLoad,                                          !- Load Distribution Scheme
  ,                                                        !- AvailabilityManagerAssignmentList
  DualSetPointDeadband;                                    !- Plant Loop Demand Calculation Scheme

PlantEquipmentOperationSchemes,
  Only Water Loop Operation,                               !- Name
  PlantEquipmentOperation:HeatingLoad,                     !- Control Scheme Object Type
  Only Water Loop Heat Operation All Hours,                !- Control Scheme Name
  HVACTemplate-Always 1,                                   !- Control Scheme Schedule Name
  PlantEquipmentOperation:CoolingLoad,                     !- Control Scheme Object Type
  Only Water Loop Cool Operation All Hours,                !- Control Scheme Name
  HVACTemplate-Always 1;                                   !- Control Scheme Schedule Name

PlantEquipmentOperation:HeatingLoad,
  Only Water Loop Heat Operation All Hours,                !- Name
  0,                                                       !- Load Range Lower Limit 1 {W}
  1000000000000000,                                        !- Load Range Upper Limit 1 {W}
  Only Water Loop All Heating Equipment;                   !- Priority Control 1 Equipment List Name

PlantEquipmentOperation:CoolingLoad,
  Only Water Loop Cool Operation All Hours,                !- Name
  0,                                                       !- Load Range Lower Limit 1 {W}
  1000000000000000,                                        !- Load Range Upper Limit 1 {W}
  Only Water Loop All Cooling Equipment;                   !- Priority Control 1 Equipment List Name

PlantEquipmentList,
  Only Water Loop All Heating Equipment,                   !- Name
  Boiler:HotWater,                                         !- Equipment Object Type
  Main Boiler;                                             !- Equipment Name

PlantEquipmentList,
  Only Water Loop All Cooling Equipment,                   !- Name
  CoolingTower:SingleSpeed,                                !- Equipment Object Type
  Main Tower;                                              !- Equipment Name

Schedule:Compact,
  HVACTemplate-Always 34,                                  !- Name
  HVACTemplate Any Number,                                 !- Schedule Type Limits Name
  Through: 12/31,                                          !- Field 1
  For: AllDays,                                            !- Field 2
  Until: 24:00,                                            !- Field 3
  34;                                                      !- Field 4

Schedule:Compact,
  HVACTemplate-Always 20,                                  !- Name
  HVACTemplate Any Number,                                 !- Schedule Type Limits Name
  Through: 12/31,                                          !- Field 1
  For: AllDays,                                            !- Field 2
  Until: 24:00,                                            !- Field 3
  20;                                                      !- Field 4

NodeList,
  Only Water Loop Mixed Supply Setpoint Nodes,             !- Name
  Main Boiler HW Outlet,                                   !- Node Name
  Main Tower CndW Outlet,                                  !- Node Name
  Only Water Loop Mixed Supply Outlet;                     !- Node Name

SetpointManager:Scheduled:DualSetpoint,
  Only Water Loop Mixed Temp Manager,                      !- Name
  Temperature,                                             !- Control Variable
  HVACTemplate-Always 34,                                  !- High Setpoint Schedule Name
  HVACTemplate-Always 20,                                  !- Low Setpoint Schedule Name
  Only Water Loop Mixed Supply Setpoint Nodes;             !- Setpoint Node or NodeList Name

BranchList,
  Only Water Loop Mixed Supply Side Branches,              !- Name
  Only Water Loop Mixed Supply Inlet Branch,               !- Branch Name
  Main Boiler Mixed Branch,                                !- Branch Name
  Main Tower Mixed Branch,                                 !- Branch Name
  Only Water Loop Mixed Supply Bypass Branch,              !- Branch Name
  Only Water Loop Mixed Supply Outlet Branch;              !- Branch Name

ConnectorList,
  Only Water Loop Mixed Supply Side Connectors,            !- Name
  Connector:Splitter,                                      !- Connector Object Type
  Only Water Loop Mixed Supply Splitter,                   !- Connector Name
  Connector:Mixer,                                         !- Connector Object Type
  Only Water Loop Mixed Supply Mixer;                      !- Connector Name

Connector:Splitter,
  Only Water Loop Mixed Supply Splitter,                   !- Name
  Only Water Loop Mixed Supply Inlet Branch,               !- Inlet Branch Name
  Main Boiler Mixed Branch,                                !- Outlet Branch Name
  Main Tower Mixed Branch,                                 !- Outlet Branch Name
  Only Water Loop Mixed Supply Bypass Branch;              !- Outlet Branch Name

Connector:Mixer,
  Only Water Loop Mixed Supply Mixer,                      !- Name
  Only Water Loop Mixed Supply Outlet Branch,              !- Outlet Branch Name
  Main Boiler Mixed Branch,                                !- Inlet Branch Name
  Main Tower Mixed Branch,                                 !- Inlet Branch Name
  Only Water Loop Mixed Supply Bypass Branch;              !- Inlet Branch Name

Branch,
  Only Water Loop Mixed Supply Bypass Branch,              !- Name
  ,                                                        !- Pressure Drop Curve Name
  Pipe:Adiabatic,                                          !- Component Object Type
  Only Water Loop Mixed Supply Side Bypass Pipe,           !- Component Name
  Only Water Loop Mixed Supply Bypass Inlet,               !- Component Inlet Node Name
  Only Water Loop Mixed Supply Bypass Outlet;              !- Component Outlet Node Name

Pipe:Adiabatic,
  Only Water Loop Mixed Supply Side Bypass Pipe,           !- Name
  Only Water Loop Mixed Supply Bypass Inlet,               !- Inlet Node Name
  Only Water Loop Mixed Supply Bypass Outlet;              !- Outlet Node Name

Pump:ConstantSpeed,
  Only Water Loop Mixed Supply Pump,                       !- Name
  Only Water Loop Mixed Supply Inlet,                      !- Inlet Node Name
  Only Water Loop Mixed Pump Outlet,                       !- Outlet Node Name
  autosize,                                                !- Rated Volumetric Flow Rate {m3/s}
  179352,                                                  !- Rated Pump Head {Pa}
  autosize,                                                !- Rated Power Consumption {W}
  0.9,                                                     !- Motor Efficiency
  0,                                                       !- Fraction of Motor Inefficiencies to Fluid Stream
  Intermittent,                                            !- Pump Control Type
  ;                                                        !- Pump Flow Rate Schedule Name

Branch,
  Only Water Loop Mixed Supply Inlet Branch,               !- Name
  ,                                                        !- Pressure Drop Curve Name
  Pump:ConstantSpeed,                                      !- Component Object Type
  Only Water Loop Mixed Supply Pump,                       !- Component Name
  Only Water Loop Mixed Supply Inlet,                      !- Component Inlet Node Name
  Only Water Loop Mixed Pump Outlet;                       !- Component Outlet Node Name

Branch,
  Only Water Loop Mixed Supply Outlet Branch,              !- Name
  ,                                                        !- Pressure Drop Curve Name
  Pipe:Adiabatic,                                          !- Component Object Type
  Only Water Loop Mixed Supply Outlet Pipe,                !- Component Name
  Only Water Loop Mixed Supply Outlet Pipe Inlet,          !- Component Inlet Node Name
  Only Water Loop Mixed Supply Outlet;                     !- Component Outlet Node Name

Pipe:Adiabatic,
  Only Water Loop Mixed Supply Outlet Pipe,                !- Name
  Only Water Loop Mixed Supply Outlet Pipe Inlet,          !- Inlet Node Name
  Only Water Loop Mixed Supply Outlet;                     !- Outlet Node Name

BranchList,
  Only Water Loop Mixed Demand Side Branches,              !- Name
  Only Water Loop Mixed Demand Inlet Branch,               !- Name
  1F_Library_IMC Cooling Condenser Branch,                 !- Name
  1F_Library_IMC Heating Condenser Branch,                 !- Name
  1F_Cafe_Kitchen Cooling Condenser Branch,                !- Name
  1F_Cafe_Kitchen Heating Condenser Branch,                !- Name
  1F_Gym Cooling Condenser Branch,                         !- Name
  1F_Gym Heating Condenser Branch,                         !- Name
  1F_Area_A Cooling Condenser Branch,                      !- Name
  1F_Area_A Heating Condenser Branch,                      !- Name
  1F_Area_B Cooling Condenser Branch,                      !- Name
  1F_Area_B Heating Condenser Branch,                      !- Name
  1F_Area_C Cooling Condenser Branch,                      !- Name
  1F_Area_C Heating Condenser Branch,                      !- Name
  1F_Area_D Cooling Condenser Branch,                      !- Name
  1F_Area_D Heating Condenser Branch,                      !- Name
  2F_Area_A Cooling Condenser Branch,                      !- Name
  2F_Area_A Heating Condenser Branch,                      !- Name
  2F_Area_B Cooling Condenser Branch,                      !- Name
  2F_Area_B Heating Condenser Branch,                      !- Name
  Only Water Loop Mixed Demand Bypass Branch,              !- Name
  Only Water Loop Mixed Demand Outlet Branch;              !- Name

ConnectorList,
  Only Water Loop Mixed Demand Side Connectors,            !- Name
  Connector:Splitter,                                      !- Connector Object Type
  Only Water Loop Mixed Demand Splitter,                   !- Connector Name
  Connector:Mixer,                                         !- Connector Object Type
  Only Water Loop Mixed Demand Mixer;                      !- Connector Name

Connector:Splitter,
  Only Water Loop Mixed Demand Splitter,                   !- Name
  Only Water Loop Mixed Demand Inlet Branch,               !- Inlet Branch Name
  Only Water Loop Mixed Demand Bypass Branch,              !- Outlet Branch Name
  1F_Library_IMC Cooling Condenser Branch,                 !- Name
  1F_Library_IMC Heating Condenser Branch,                 !- Name
  1F_Cafe_Kitchen Cooling Condenser Branch,                !- Name
  1F_Cafe_Kitchen Heating Condenser Branch,                !- Name
  1F_Gym Cooling Condenser Branch,                         !- Name
  1F_Gym Heating Condenser Branch,                         !- Name
  1F_Area_A Cooling Condenser Branch,                      !- Name
  1F_Area_A Heating Condenser Branch,                      !- Name
  1F_Area_B Cooling Condenser Branch,                      !- Name
  1F_Area_B Heating Condenser Branch,                      !- Name
  1F_Area_C Cooling Condenser Branch,                      !- Name
  1F_Area_C Heating Condenser Branch,                      !- Name
  1F_Area_D Cooling Condenser Branch,                      !- Name
  1F_Area_D Heating Condenser Branch,                      !- Name
  2F_Area_A Cooling Condenser Branch,                      !- Name
  2F_Area_A Heating Condenser Branch,                      !- Name
  2F_Area_B Cooling Condenser Branch,                      !- Name
  2F_Area_B Heating Condenser Branch;                      !- Name

Connector:Mixer,
  Only Water Loop Mixed Demand Mixer,                      !- Name
  Only Water Loop Mixed Demand Outlet Branch,              !- Outlet Branch Name
  Only Water Loop Mixed Demand Bypass Branch,              !- Inlet Branch Name
  1F_Library_IMC Cooling Condenser Branch,                 !- Name
  1F_Library_IMC Heating Condenser Branch,                 !- Name
  1F_Cafe_Kitchen Cooling Condenser Branch,                !- Name
  1F_Cafe_Kitchen Heating Condenser Branch,                !- Name
  1F_Gym Cooling Condenser Branch,                         !- Name
  1F_Gym Heating Condenser Branch,                         !- Name
  1F_Area_A Cooling Condenser Branch,                      !- Name
  1F_Area_A Heating Condenser Branch,                      !- Name
  1F_Area_B Cooling Condenser Branch,                      !- Name
  1F_Area_B Heating Condenser Branch,                      !- Name
  1F_Area_C Cooling Condenser Branch,                      !- Name
  1F_Area_C Heating Condenser Branch,                      !- Name
  1F_Area_D Cooling Condenser Branch,                      !- Name
  1F_Area_D Heating Condenser Branch,                      !- Name
  2F_Area_A Cooling Condenser Branch,                      !- Name
  2F_Area_A Heating Condenser Branch,                      !- Name
  2F_Area_B Cooling Condenser Branch,                      !- Name
  2F_Area_B Heating Condenser Branch;                      !- Name

Branch,
  Only Water Loop Mixed Demand Inlet Branch,               !- Name
  ,                                                        !- Pressure Drop Curve Name
  Pipe:Adiabatic,                                          !- Component Object Type
  Only Water Loop Mixed Demand Inlet Pipe,                 !- Component Name
  Only Water Loop Mixed Demand Inlet,                      !- Component Inlet Node Name
  Only Water Loop Mixed Demand Inlet Pipe Outlet;          !- Component Outlet Node Name

Pipe:Adiabatic,
  Only Water Loop Mixed Demand Inlet Pipe,                 !- Name
  Only Water Loop Mixed Demand Inlet,                      !- Inlet Node Name
  Only Water Loop Mixed Demand Inlet Pipe Outlet;          !- Outlet Node Name

Branch,
  Only Water Loop Mixed Demand Bypass Branch,              !- Name
  ,                                                        !- Pressure Drop Curve Name
  Pipe:Adiabatic,                                          !- Component Object Type
  Only Water Loop Mixed Demand Side Bypass Pipe,           !- Component Name
  Only Water Loop Mixed Demand Bypass Inlet,               !- Component Inlet Node Name
  Only Water Loop Mixed Demand Bypass Outlet;              !- Component Outlet Node Name

Pipe:Adiabatic,
  Only Water Loop Mixed Demand Side Bypass Pipe,           !- Name
  Only Water Loop Mixed Demand Bypass Inlet,               !- Inlet Node Name
  Only Water Loop Mixed Demand Bypass Outlet;              !- Outlet Node Name

Branch,
  Only Water Loop Mixed Demand Outlet Branch,              !- Name
  ,                                                        !- Pressure Drop Curve Name
  Pipe:Adiabatic,                                          !- Component Object Type
  Only Water Loop Mixed Demand Outlet Pipe,                !- Component Name
  Only Water Loop Mixed Demand Outlet Pipe Inlet,          !- Component Inlet Node Name
  Only Water Loop Mixed Demand Outlet;                     !- Component Outlet Node Name

Pipe:Adiabatic,
  Only Water Loop Mixed Demand Outlet Pipe,                !- Name
  Only Water Loop Mixed Demand Outlet Pipe Inlet,          !- Inlet Node Name
  Only Water Loop Mixed Demand Outlet;                     !- Outlet Node Name

Site:GroundTemperature:BuildingSurface,
  2.0,                                                     !- January Ground Temperature
  1.5,                                                     !- February Ground Temperature
  3.0,                                                     !- March Ground Temperature
  7.0,                                                     !- April Ground Temperature
  12.0,                                                    !- May Ground Temperature
  16.0,                                                    !- June Ground Temperature
  18.0,                                                    !- July Ground Temperature
  18.5,                                                    !- August Ground Temperature
  16.0,                                                    !- September Ground Temperature
  11.0,                                                    !- October Ground Temperature
  6.0,                                                     !- November Ground Temperature
  3.0;                                                     !- December Ground Temperature

ZoneCapacitanceMultiplier:ResearchSpecial,
  CapMult_1F_Library_IMC,           !- Name
  1F_Library_IMC,                    !- Zone or ZoneList Name
  6,                    !- Temperature Capacity Multiplier
  1.0,                    !- Humidity Capacity Multiplier
  1.0,                    !- Carbon Dioxide Capacity Multiplier
  1.0;                    !- Generic Contaminant Capacity Multiplier

ZoneCapacitanceMultiplier:ResearchSpecial,
  CapMult_1F_Cafe_Kitchen,           !- Name
  1F_Cafe_Kitchen,                    !- Zone or ZoneList Name
  6,                    !- Temperature Capacity Multiplier
  1.0,                    !- Humidity Capacity Multiplier
  1.0,                    !- Carbon Dioxide Capacity Multiplier
  1.0;                    !- Generic Contaminant Capacity Multiplier

ZoneCapacitanceMultiplier:ResearchSpecial,
  CapMult_1F_Gym,           !- Name
  1F_Gym,                    !- Zone or ZoneList Name
  6,                    !- Temperature Capacity Multiplier
  1.0,                    !- Humidity Capacity Multiplier
  1.0,                    !- Carbon Dioxide Capacity Multiplier
  1.0;                    !- Generic Contaminant Capacity Multiplier

ZoneCapacitanceMultiplier:ResearchSpecial,
  CapMult_1F_Area_A,           !- Name
  1F_Area_A,                    !- Zone or ZoneList Name
  6,                    !- Temperature Capacity Multiplier
  1.0,                    !- Humidity Capacity Multiplier
  1.0,                    !- Carbon Dioxide Capacity Multiplier
  1.0;                    !- Generic Contaminant Capacity Multiplier

ZoneCapacitanceMultiplier:ResearchSpecial,
  CapMult_1F_Area_B,           !- Name
  1F_Area_B,                    !- Zone or ZoneList Name
  6,                    !- Temperature Capacity Multiplier
  1.0,                    !- Humidity Capacity Multiplier
  1.0,                    !- Carbon Dioxide Capacity Multiplier
  1.0;                    !- Generic Contaminant Capacity Multiplier

ZoneCapacitanceMultiplier:ResearchSpecial,
  CapMult_1F_Area_C,           !- Name
  1F_Area_C,                    !- Zone or ZoneList Name
  6,                    !- Temperature Capacity Multiplier
  1.0,                    !- Humidity Capacity Multiplier
  1.0,                    !- Carbon Dioxide Capacity Multiplier
  1.0;                    !- Generic Contaminant Capacity Multiplier

ZoneCapacitanceMultiplier:ResearchSpecial,
  CapMult_1F_Area_D,           !- Name
  1F_Area_D,                    !- Zone or ZoneList Name
  6,                    !- Temperature Capacity Multiplier
  1.0,                    !- Humidity Capacity Multiplier
  1.0,                    !- Carbon Dioxide Capacity Multiplier
  1.0;                    !- Generic Contaminant Capacity Multiplier

ZoneCapacitanceMultiplier:ResearchSpecial,
  CapMult_2F_Area_A,           !- Name
  2F_Area_A,                    !- Zone or ZoneList Name
  6,                    !- Temperature Capacity Multiplier
  1.0,                    !- Humidity Capacity Multiplier
  1.0,                    !- Carbon Dioxide Capacity Multiplier
  1.0;                    !- Generic Contaminant Capacity Multiplier

ZoneCapacitanceMultiplier:ResearchSpecial,
  CapMult_2F_Area_B,           !- Name
  2F_Area_B,                    !- Zone or ZoneList Name
  6,                    !- Temperature Capacity Multiplier
  1.0,                    !- Humidity Capacity Multiplier
  1.0,                    !- Carbon Dioxide Capacity Multiplier
  1.0;                    !- Generic Contaminant Capacity Multiplier
MATERIAL,
  Mat_Furniture,             !- Name
  MediumSmooth,              !- Roughness
  0.05,                      !- Thickness {m}
  0.15,                      !- Conductivity {W/m-K}
  600,                       !- Density {kg/m3}
  1200,                      !- Specific Heat {J/kg-K}
  0.9, 0.7, 0.7;
CONSTRUCTION,
  A04v2_Furniture,           !- Name
  Mat_Furniture;             !- Outside Layer
INTERNALMASS,
  IM_1F_Library_IMC,                   !- Name
  A04v2_Furniture,           !- Construction Name
  1F_Library_IMC,                      !- Zone or ZoneList Name
  ,                          !- Space Name
  2000;            !- Surface Area {m2}
INTERNALMASS,
  IM_1F_Cafe_Kitchen,                   !- Name
  A04v2_Furniture,           !- Construction Name
  1F_Cafe_Kitchen,                      !- Zone or ZoneList Name
  ,                          !- Space Name
  2000;            !- Surface Area {m2}
INTERNALMASS,
  IM_1F_Gym,                   !- Name
  A04v2_Furniture,           !- Construction Name
  1F_Gym,                      !- Zone or ZoneList Name
  ,                          !- Space Name
  2000;            !- Surface Area {m2}
INTERNALMASS,
  IM_1F_Area_A,                   !- Name
  A04v2_Furniture,           !- Construction Name
  1F_Area_A,                      !- Zone or ZoneList Name
  ,                          !- Space Name
  2000;            !- Surface Area {m2}
INTERNALMASS,
  IM_1F_Area_B,                   !- Name
  A04v2_Furniture,           !- Construction Name
  1F_Area_B,                      !- Zone or ZoneList Name
  ,                          !- Space Name
  2000;            !- Surface Area {m2}
INTERNALMASS,
  IM_1F_Area_C,                   !- Name
  A04v2_Furniture,           !- Construction Name
  1F_Area_C,                      !- Zone or ZoneList Name
  ,                          !- Space Name
  2000;            !- Surface Area {m2}
INTERNALMASS,
  IM_1F_Area_D,                   !- Name
  A04v2_Furniture,           !- Construction Name
  1F_Area_D,                      !- Zone or ZoneList Name
  ,                          !- Space Name
  2000;            !- Surface Area {m2}
INTERNALMASS,
  IM_2F_Area_A,                   !- Name
  A04v2_Furniture,           !- Construction Name
  2F_Area_A,                      !- Zone or ZoneList Name
  ,                          !- Space Name
  2000;            !- Surface Area {m2}
INTERNALMASS,
  IM_2F_Area_B,                   !- Name
  A04v2_Furniture,           !- Construction Name
  2F_Area_B,                      !- Zone or ZoneList Name
  ,                          !- Space Name
  2000;            !- Surface Area {m2}
